LAMMPS (29 Sep 2021 - Update 3)
OMP_NUM_THREADS environment is not set. Defaulting to 1 thread. (src/comm.cpp:98)
  using 1 OpenMP thread(s) per MPI task


# ----------------- Init Section -----------------

include "polymer_melt.in.init"
units lj
atom_style molecular
bond_style fene
special_bonds fene
angle_style harmonic
pair_style soft 5.0


# ----------------- Atom Definition Section -----------------

read_data "polymer_melt.data"
Reading data file ...
  orthogonal box = (-52.337061 -52.337061 -52.337061) to (52.337061 52.337061 52.337061)
  4 by 2 by 4 MPI processor grid
  reading atoms ...
  35840 atoms
  scanning bonds ...
  4 = max bonds/atom
  scanning angles ...
  1 = max angles/atom
  reading bonds ...
  42040 bonds
  reading angles ...
  3360 angles
Finding 1-2 1-3 1-4 neighbors ...
  special bond factors lj:    0        1        1       
  special bond factors coul:  0        1        1       
     6 = max # of 1-2 neighbors
     6 = max # of special neighbors
  special bonds CPU = 0.004 seconds
  read_data CPU = 0.244 seconds

# ----------------- Settings Section -----------------

include "polymer_melt.in.settings"
group flexChains type 1
32000 atoms in group flexChains
group rigidChains type 2
3840 atoms in group rigidChains
#---- Pair (non bonded interactions) coeffs ----
pair_coeff 1 1 5.0
pair_coeff 1 2 5.0
pair_coeff 2 2 5.0

#---- Bond Coeffs ----
bond_coeff 1 34.1594 1.5 1.0 1.0
#---- Angle Coeffs ----
angle_coeff 1 1000.0 180.0

# Straighten up the rigid rods
variable rc equal 5.0
thermo 100
min_style sd
minimize 1e-50 1e-50 50000 100000
WARNING: Using 'neigh_modify every 1 delay 0 check yes' setting during minimization (src/min.cpp:188)
Neighbor list info ...
  update every 1 steps, delay 0 steps, check yes
  max neighbors/atom: 2000, page size: 100000
  master list distance cutoff = 5.3
  ghost atom cutoff = 5.3
  binsize = 2.65, bins = 40 40 40
  1 neighbor lists, perpetual/occasional/extra = 1 0 0
  (1) pair soft, perpetual
      attributes: half, newton on
      pair build: half/bin/newton
      stencil: half/bin/3d
      bin: standard
Per MPI rank memory allocation (min/avg/max) = 8.288 | 8.362 | 8.607 Mbytes
Step Temp E_pair E_mol TotEng Press 
       0            0    88.129279    131.16204    219.29132    11.478936 
WARNING: FENE bond too long: 1 2173 2174 1.4342274665375956 (src/MOLECULE/bond_fene.cpp:83)
WARNING: FENE bond too long: 1 2173 2176 1.4342050046314765 (src/MOLECULE/bond_fene.cpp:83)
WARNING: FENE bond too long: 1 2113 2114 1.4342274665375907 (src/MOLECULE/bond_fene.cpp:83)
WARNING: FENE bond too long: 1 2113 2116 1.4342274665375916 (src/MOLECULE/bond_fene.cpp:83)
WARNING: FENE bond too long: 1 2117 2118 1.435922022154158 (src/MOLECULE/bond_fene.cpp:83)
WARNING: FENE bond too long: 1 2117 2120 1.43592202215415 (src/MOLECULE/bond_fene.cpp:83)
WARNING: FENE bond too long: 1 2121 2122 1.4418339518007506 (src/MOLECULE/bond_fene.cpp:83)
WARNING: FENE bond too long: 1 2121 2124 1.441833951800752 (src/MOLECULE/bond_fene.cpp:83)
WARNING: FENE bond too long: 1 2125 2126 1.4418784869993981 (src/MOLECULE/bond_fene.cpp:83)
WARNING: FENE bond too long: 1 2125 2128 1.441878486999399 (src/MOLECULE/bond_fene.cpp:83)
WARNING: FENE bond too long: 1 2129 2130 1.4419172317822944 (src/MOLECULE/bond_fene.cpp:83)
WARNING: FENE bond too long: 1 2129 2132 1.4419172317822935 (src/MOLECULE/bond_fene.cpp:83)
WARNING: FENE bond too long: 1 2131 2132 1.441917231782293 (src/MOLECULE/bond_fene.cpp:83)
WARNING: FENE bond too long: 1 2133 2134 1.4419491473204094 (src/MOLECULE/bond_fene.cpp:83)
WARNING: FENE bond too long: 1 2133 2136 1.441949147320416 (src/MOLECULE/bond_fene.cpp:83)
WARNING: FENE bond too long: 1 2135 2136 1.4419491473204105 (src/MOLECULE/bond_fene.cpp:83)
WARNING: FENE bond too long: 1 2139 2140 1.441973593143115 (src/MOLECULE/bond_fene.cpp:83)
WARNING: FENE bond too long: 1 2142 2143 1.4419879322563682 (src/MOLECULE/bond_fene.cpp:83)
WARNING: FENE bond too long: 1 2143 2144 1.4419879322563682 (src/MOLECULE/bond_fene.cpp:83)
WARNING: FENE bond too long: 1 2145 2146 1.4419879322563691 (src/MOLECULE/bond_fene.cpp:83)
WARNING: FENE bond too long: 1 2145 2148 1.4419879322563711 (src/MOLECULE/bond_fene.cpp:83)
WARNING: FENE bond too long: 1 2146 2147 1.4419879322563736 (src/MOLECULE/bond_fene.cpp:83)
WARNING: FENE bond too long: 1 2147 2148 1.4419879322563756 (src/MOLECULE/bond_fene.cpp:83)
WARNING: FENE bond too long: 1 2150 2151 1.4419735931431183 (src/MOLECULE/bond_fene.cpp:83)
WARNING: FENE bond too long: 1 2151 2152 1.4419735931431192 (src/MOLECULE/bond_fene.cpp:83)
WARNING: FENE bond too long: 1 2149 2150 1.4419735931431057 (src/MOLECULE/bond_fene.cpp:83)
WARNING: FENE bond too long: 1 2149 2152 1.441973593143109 (src/MOLECULE/bond_fene.cpp:83)
WARNING: FENE bond too long: 1 2153 2154 1.441948350909013 (src/MOLECULE/bond_fene.cpp:83)
WARNING: FENE bond too long: 1 2153 2156 1.4419473907414215 (src/MOLECULE/bond_fene.cpp:83)
WARNING: FENE bond too long: 1 2154 2155 1.4419491473204067 (src/MOLECULE/bond_fene.cpp:83)
WARNING: FENE bond too long: 1 2155 2156 1.4419491473203967 (src/MOLECULE/bond_fene.cpp:83)
WARNING: FENE bond too long: 1 2157 2158 1.4419080967714335 (src/MOLECULE/bond_fene.cpp:83)
WARNING: FENE bond too long: 1 2157 2160 1.4419092207912036 (src/MOLECULE/bond_fene.cpp:83)
WARNING: FENE bond too long: 1 2158 2159 1.441917231782296 (src/MOLECULE/bond_fene.cpp:83)
WARNING: FENE bond too long: 1 2159 2160 1.4419172317823075 (src/MOLECULE/bond_fene.cpp:83)
WARNING: FENE bond too long: 1 2161 2162 1.4418638173604514 (src/MOLECULE/bond_fene.cpp:83)
WARNING: FENE bond too long: 1 2161 2164 1.4418740745524485 (src/MOLECULE/bond_fene.cpp:83)
WARNING: FENE bond too long: 1 2162 2163 1.4418784869993946 (src/MOLECULE/bond_fene.cpp:83)
WARNING: FENE bond too long: 1 2163 2164 1.4418784869993981 (src/MOLECULE/bond_fene.cpp:83)
WARNING: FENE bond too long: 1 2165 2166 1.4418254456844222 (src/MOLECULE/bond_fene.cpp:83)
WARNING: FENE bond too long: 1 2165 2168 1.441836337522364 (src/MOLECULE/bond_fene.cpp:83)
WARNING: FENE bond too long: 1 2166 2167 1.4418339518007612 (src/MOLECULE/bond_fene.cpp:83)
WARNING: FENE bond too long: 1 2167 2168 1.441823344829954 (src/MOLECULE/bond_fene.cpp:83)
WARNING: FENE bond too long: 1 2169 2170 1.4359211835086014 (src/MOLECULE/bond_fene.cpp:83)
WARNING: FENE bond too long: 1 2169 2172 1.4359140674586193 (src/MOLECULE/bond_fene.cpp:83)
WARNING: FENE bond too long: 1 2170 2171 1.4359220221541398 (src/MOLECULE/bond_fene.cpp:83)
WARNING: FENE bond too long: 1 2171 2172 1.4358977600391947 (src/MOLECULE/bond_fene.cpp:83)
WARNING: FENE bond too long: 1 2174 2175 1.4342274665376038 (src/MOLECULE/bond_fene.cpp:83)
WARNING: FENE bond too long: 1 2175 2176 1.4342074845940374 (src/MOLECULE/bond_fene.cpp:83)
WARNING: FENE bond too long: 1 2114 2115 1.4342274665375905 (src/MOLECULE/bond_fene.cpp:83)
WARNING: FENE bond too long: 1 2115 2116 1.4342274665375923 (src/MOLECULE/bond_fene.cpp:83)
WARNING: FENE bond too long: 1 2118 2119 1.4359220221541509 (src/MOLECULE/bond_fene.cpp:83)
WARNING: FENE bond too long: 1 2119 2120 1.4359220221541504 (src/MOLECULE/bond_fene.cpp:83)
WARNING: FENE bond too long: 1 2122 2123 1.4418339518007572 (src/MOLECULE/bond_fene.cpp:83)
WARNING: FENE bond too long: 1 2123 2124 1.4418339518007628 (src/MOLECULE/bond_fene.cpp:83)
WARNING: FENE bond too long: 1 2126 2127 1.441878486999395 (src/MOLECULE/bond_fene.cpp:83)
WARNING: FENE bond too long: 1 2127 2128 1.4418784869993895 (src/MOLECULE/bond_fene.cpp:83)
WARNING: FENE bond too long: 1 2130 2131 1.441917231782297 (src/MOLECULE/bond_fene.cpp:83)
WARNING: FENE bond too long: 1 2134 2135 1.4419491473204062 (src/MOLECULE/bond_fene.cpp:83)
WARNING: FENE bond too long: 1 2137 2138 1.4419735931431106 (src/MOLECULE/bond_fene.cpp:83)
WARNING: FENE bond too long: 1 2137 2140 1.4419735931431081 (src/MOLECULE/bond_fene.cpp:83)
WARNING: FENE bond too long: 1 2138 2139 1.4419735931431268 (src/MOLECULE/bond_fene.cpp:83)
WARNING: FENE bond too long: 1 2141 2142 1.4419879322563802 (src/MOLECULE/bond_fene.cpp:83)
WARNING: FENE bond too long: 1 2141 2144 1.4419879322563802 (src/MOLECULE/bond_fene.cpp:83)
WARNING: FENE bond too long: 1 1803 1804 1.4417097595349533 (src/MOLECULE/bond_fene.cpp:83)
WARNING: FENE bond too long: 1 1807 1808 1.441883479505967 (src/MOLECULE/bond_fene.cpp:83)
WARNING: FENE bond too long: 1 1795 1796 1.434087868136638 (src/MOLECULE/bond_fene.cpp:83)
WARNING: FENE bond too long: 1 1799 1800 1.4357006891606225 (src/MOLECULE/bond_fene.cpp:83)
WARNING: FENE bond too long: 1 1802 1803 1.442042223409634 (src/MOLECULE/bond_fene.cpp:83)
WARNING: FENE bond too long: 1 1806 1807 1.4418679651848685 (src/MOLECULE/bond_fene.cpp:83)
WARNING: FENE bond too long: 1 1793 1794 1.4341794087658142 (src/MOLECULE/bond_fene.cpp:83)
WARNING: FENE bond too long: 1 1793 1796 1.4343469448648074 (src/MOLECULE/bond_fene.cpp:83)
WARNING: FENE bond too long: 1 1794 1795 1.4343818179136754 (src/MOLECULE/bond_fene.cpp:83)
WARNING: FENE bond too long: 1 1797 1798 1.435761265709698 (src/MOLECULE/bond_fene.cpp:83)
WARNING: FENE bond too long: 1 1797 1800 1.4360650616642354 (src/MOLECULE/bond_fene.cpp:83)
WARNING: FENE bond too long: 1 1798 1799 1.436204370529259 (src/MOLECULE/bond_fene.cpp:83)
WARNING: FENE bond too long: 1 1801 1802 1.4416471073592019 (src/MOLECULE/bond_fene.cpp:83)
WARNING: FENE bond too long: 1 1801 1804 1.441912128657605 (src/MOLECULE/bond_fene.cpp:83)
WARNING: FENE bond too long: 1 1805 1806 1.4417709376962666 (src/MOLECULE/bond_fene.cpp:83)
WARNING: FENE bond too long: 1 1805 1808 1.4418311287645666 (src/MOLECULE/bond_fene.cpp:83)
WARNING: FENE bond too long: 1 1818 1819 1.4418611687652392 (src/MOLECULE/bond_fene.cpp:83)
WARNING: FENE bond too long: 1 1811 1812 1.441973697184804 (src/MOLECULE/bond_fene.cpp:83)
WARNING: FENE bond too long: 1 1815 1816 1.4419538971198276 (src/MOLECULE/bond_fene.cpp:83)
WARNING: FENE bond too long: 1 1819 1820 1.4418664363277984 (src/MOLECULE/bond_fene.cpp:83)
WARNING: FENE bond too long: 1 1822 1823 1.4419635600919491 (src/MOLECULE/bond_fene.cpp:83)
WARNING: FENE bond too long: 1 1826 1827 1.4419795110695144 (src/MOLECULE/bond_fene.cpp:83)
WARNING: FENE bond too long: 1 1830 1831 1.4419152213419275 (src/MOLECULE/bond_fene.cpp:83)
WARNING: FENE bond too long: 1 1810 1811 1.4417331165977747 (src/MOLECULE/bond_fene.cpp:83)
WARNING: FENE bond too long: 1 1814 1815 1.4417447218112749 (src/MOLECULE/bond_fene.cpp:83)
WARNING: FENE bond too long: 1 1817 1818 1.441972045806962 (src/MOLECULE/bond_fene.cpp:83)
WARNING: FENE bond too long: 1 1817 1820 1.4418174285436967 (src/MOLECULE/bond_fene.cpp:83)
WARNING: FENE bond too long: 1 1821 1822 1.4418806158669464 (src/MOLECULE/bond_fene.cpp:83)
WARNING: FENE bond too long: 1 1821 1824 1.4418394395256156 (src/MOLECULE/bond_fene.cpp:83)
WARNING: FENE bond too long: 1 1825 1826 1.441844639002197 (src/MOLECULE/bond_fene.cpp:83)
WARNING: FENE bond too long: 1 1825 1828 1.4418535947072662 (src/MOLECULE/bond_fene.cpp:83)
WARNING: FENE bond too long: 1 1829 1830 1.441882192034999 (src/MOLECULE/bond_fene.cpp:83)
WARNING: FENE bond too long: 1 1829 1832 1.4418632535277063 (src/MOLECULE/bond_fene.cpp:83)
WARNING: FENE bond too long: 1 1809 1810 1.441916779977876 (src/MOLECULE/bond_fene.cpp:83)
WARNING: FENE bond too long: 1 1809 1812 1.4417712302374235 (src/MOLECULE/bond_fene.cpp:83)
WARNING: Too many warnings: 863234 vs 100. All future warnings will be suppressed (src/thermo.cpp:422)
     100            0    83.383133    41.927865      125.311    1.8177848 
     200            0    76.985232    31.364641    108.34987    1.4918766 
     300            0    70.803777    29.418393    100.22217    1.2299858 
     400            0    66.172219    28.955881    95.128099    1.1020997 
     500            0    62.422602    28.796505    91.219107    1.0126862 
     600            0    59.321205    28.743411    88.064615   0.94351816 
     700            0    56.703802    28.731305    85.435107   0.88843918 
     800            0    54.450931    28.734387    83.185318    0.8428049 
     900            0    52.485959    28.742857    81.228817   0.80462131 
    1000            0     50.74924    28.751101    79.500341   0.77216126 
    1100            0    49.189735    28.758037    77.947773   0.74451517 
    1200            0    47.771352    28.763353    76.534705   0.72111619 
    1300            0    46.466545    28.767128    75.233674   0.70102592 
    1400            0    45.255338    28.769615    74.024953   0.68346425 
    1500            0    44.122703    28.771143    72.893846    0.6678668 
    1600            0     43.05666    28.771983    71.828644   0.65395812 
    1700            0    42.047137    28.772354    70.819491   0.64171439 
    1800            0    41.085274    28.772411    69.857685   0.63099086 
    1900            0    40.164002    28.772276    68.936279   0.62138095 
    2000            0    39.274741    28.772395    68.047136   0.61270271 
    2100            0    38.312728     28.77374    67.086468   0.60392271 
    2200            0    37.391302     28.77257    66.163872   0.59590779 
    2300            0     36.52408    28.772509    65.296589   0.58869778 
    2400            0    35.544978    28.775638    64.320616   0.58094472 
    2500            0    34.157332    28.776469    62.933801   0.57035943 
    2600            0    33.046593    28.775126    61.821719   0.56192533 
    2700            0    32.034055    28.775535     60.80959   0.55409533 
    2800            0    31.054292    28.776678     59.83097   0.54614668 
    2900            0    29.937187    28.777943    58.715131   0.53640796 
    3000            0    29.061645    28.780122    57.841767   0.52819661 
    3100            0     28.06751    28.784225    56.851735   0.51809311 
    3200            0    27.008959    28.785755    55.794714   0.50607445 
    3300            0    26.131195    28.789684    54.920879   0.49486141 
    3400            0    25.330918    28.796057    54.126975   0.48339122 
    3500            0    24.626748    28.802004    53.428752    0.4719151 
    3600            0    23.985419    28.808574    52.793993   0.46020237 
    3700            0    23.403173    28.815869    52.219043   0.44830037 
    3800            0    22.877559    28.823617    51.701176   0.43631242 
    3900            0    22.404863    28.831754    51.236618   0.42441684 
    4000            0    21.981312    28.840265    50.821578   0.41264524 
    4100            0    21.601757    28.848227    50.449984   0.40096932 
    4200            0    21.208105    28.865368    50.073473   0.38767919 
    4300            0    20.784636    28.870442    49.655078   0.37178344 
    4400            0    20.367997    28.884498    49.252496   0.35502147 
    4500            0    19.900741    28.899663    48.800404   0.33465099 
    4600            0    19.539067    28.913119    48.452186   0.31756481 
    4700            0    19.267042    28.919192    48.186234     0.304074 
    4800            0    18.768274    28.939408    47.707682   0.27856862 
    4900            0     18.52005    28.943452    47.463502   0.26218458 
    5000            0    18.388618    28.947055    47.335672   0.25449483 
    5100            0    18.180065    28.953708    47.133773   0.24120167 
    5200            0    18.000192    28.959047    46.959239    0.2291409 
    5300            0    17.869183    28.963031    46.832213   0.22005537 
    5400            0    17.782644    28.965784    46.748428   0.21381678 
    5500            0    17.655276    28.969963    46.625239   0.20429739 
    5600            0    17.583556    28.974962    46.558518   0.19882855 
    5700            0    17.496296    28.975134     46.47143    0.1919003 
    5800            0    17.439583    28.977113    46.416696   0.18729266 
    5900            0    17.369968    28.979579    46.349547   0.18150558 
    6000            0     17.30209     28.98213     46.28422    0.1757422 
    6100            0    17.206649    28.985577    46.192226   0.16746879 
    6200            0    17.169355    28.986907    46.156262   0.16418891 
    6300            0    17.110944    28.989218    46.100162   0.15886016 
    6400            0    17.076756    28.990413     46.06717   0.15579337 
    6500            0    17.040158     28.99392    46.034078   0.15246206 
    6600            0    16.985497    28.993918    45.979415   0.14734673 
    6700            0    16.937525     28.99581    45.933336   0.14284763 
    6800            0     16.90782    28.996941    45.904761   0.14002401 
    6900            0    16.886828    28.997759    45.884586   0.13804208 
    7000            0    16.839605    28.999561    45.839165   0.13341985 
    7100            0    16.824788    29.000129    45.824917   0.13195797 
    7200            0    16.803531    29.000977    45.804508   0.12984047 
    7300            0    16.778861    29.001927    45.780788   0.12738533 
    7400            0    16.737518    29.003623    45.741141   0.12321993 
    7500            0    16.710747    29.004658    45.715405   0.12047295 
    7600            0    16.683972    29.005696    45.689668   0.11773999 
    7700            0    16.663987    29.006492    45.670479   0.11567483 
    7800            0    16.629683    29.007907     45.63759    0.1121415 
    7900            0    16.608982    29.008695    45.617677   0.10995214 
    8000            0    16.582389    29.009752    45.592141   0.10715272 
    8100            0    16.566285    29.012221    45.578505   0.10544806 
    8200            0    16.553811    29.010914    45.564726   0.10410551 
    8300            0    16.526973    29.012069    45.539041   0.10120991 
    8400            0     16.50854    29.012777    45.521317  0.099245565 
    8500            0    16.481257     29.01382    45.495077  0.096325049 
    8600            0    16.453039    29.015156    45.468194  0.093223807 
    8700            0    16.441549    29.015634    45.457183  0.092006771 
    8800            0    16.432144    29.015811    45.447955  0.090976907 
    8900            0    16.409818    29.016699    45.426517   0.08854465 
    9000            0    16.404223    29.016886    45.421108  0.087936102 
    9100            0    16.379126    29.018128    45.397254  0.085079687 
    9200            0     16.36439    29.018504    45.382894  0.083567355 
    9300            0    16.358306    29.018623    45.376929  0.082936423 
    9400            0    16.347892    29.019068    45.366961  0.081785161 
    9500            0    16.334744    29.019531    45.354275  0.080360161 
    9600            0    16.326431    29.019866    45.346297  0.079448597 
    9700            0    16.317896    29.020217    45.338113  0.078511959 
    9800            0    16.306671    29.020691    45.327362  0.077279563 
    9900            0    16.295787    29.021089    45.316876  0.076111357 
   10000            0    16.280359     29.02166     45.30202  0.074407982 
   10100            0    16.276764    29.021752    45.298516    0.0740405 
   10200            0    16.271394    29.021955    45.293349  0.073457582 
   10300            0    16.260974    29.022363    45.283338  0.072321149 
   10400            0    16.248047    29.022765    45.270812  0.070912217 
   10500            0     16.24415    29.023005    45.267155  0.070486517 
   10600            0    16.233272    29.023539    45.256811  0.069271258 
   10700            0    16.224277    29.023855    45.248132  0.068302371 
   10800            0     16.21929    29.023951    45.243241  0.067786922 
   10900            0    16.213082    29.024247     45.23733  0.067105913 
   11000            0    16.206681    29.024441    45.231122  0.066423804 
   11100            0    16.202249    29.024606    45.226855  0.065954823 
   11200            0    16.194461    29.024876    45.219337  0.065107125 
   11300            0    16.186668    29.025157    45.211824  0.064276986 
   11400            0    16.177375    29.025485    45.202861  0.063278372 
   11500            0     16.17334    29.025614    45.198954  0.062851872 
   11600            0    16.159619    29.026194    45.185813  0.061357312 
   11700            0    16.156968    29.026169    45.183137  0.061103825 
   11800            0    16.151688     29.02637    45.178058  0.060535006 
   11900            0    16.147334    29.026497    45.173831  0.060077234 
   12000            0    16.141233    29.026721    45.167953  0.059427612 
   12100            0    16.132073    29.027114    45.159187  0.058466079 
   12200            0    16.128988     29.02709    45.156077  0.058150137 
   12300            0     16.12136    29.027444    45.148804  0.057316235 
   12400            0    16.113075    29.027673    45.140748  0.056469391 
   12500            0    16.110067    29.027683     45.13775  0.056173221 
   12600            0    16.101757    29.027993    45.129751  0.055297422 
   12700            0    16.099834    29.028003    45.127837  0.055112643 
   12800            0    16.098281    29.028068    45.126349   0.05495268 
   12900            0    16.095117    29.028145    45.123262  0.054622654 
   13000            0    16.091755     29.02824    45.119996  0.054275921 
   13100            0    16.089046    29.028318    45.117365   0.05399619 
   13200            0    16.083434    29.028476     45.11191  0.053425334 
   13300            0    16.074269    29.028844    45.103113  0.052505009 
   13400            0    16.072284    29.028786     45.10107  0.052276589 
   13500            0    16.066093    29.028958     45.09505  0.051648942 
   13600            0    16.061605    29.029107    45.090712  0.051189598 
   13700            0     16.05936    29.029147    45.088507  0.050954327 
   13800            0    16.053276    29.029334     45.08261  0.050322239 
   13900            0    16.048495    29.029472    45.077967  0.049817276 
   14000            0    16.045525    29.029536    45.075061  0.049536744 
   14100            0    16.041649    29.029642    45.071291   0.04914022 
   14200            0     16.03847    29.029763    45.068232  0.048805855 
   14300            0    16.034468    29.029824    45.064292  0.048410113 
   14400            0    16.030084    29.029947    45.060031  0.047961799 
   14500            0    16.023333    29.029821    45.053154  0.047367599 
   14600            0    16.018295    29.030244    45.048539  0.046752987 
   14700            0    16.015419    29.030351     45.04577  0.046483151 
   14800            0    16.014203    29.030329    45.044532  0.046365142 
   14900            0    16.009802    29.030624    45.040426  0.045856119 
   15000            0    16.007958    29.030481    45.038439  0.045739228 
   15100            0    15.999499    29.030974    45.030473  0.045122466 
   15200            0    15.998804    29.030724    45.029527  0.044822701 
   15300            0    15.995418    29.030762     45.02618  0.044502052 
   15400            0    15.991005    29.030917    45.021923  0.044044036 
   15500            0    15.987662    29.030927    45.018589  0.043730671 
   15600            0    15.979899    29.031505    45.011404  0.043345283 
   15700            0     15.97868    29.031149    45.009829  0.042840469 
   15800            0    15.975241    29.031244    45.006484  0.042498603 
   15900            0    15.971771    29.031301    45.003072    0.0421686 
   16000            0    15.970962    29.031298     45.00226   0.04209505 
   16100            0     15.96977     29.03132     45.00109  0.041980669 
   16200            0    15.966099      29.0314    44.997499  0.041625856 
   16300            0      15.9621    29.031478    44.993578  0.041227343 
   16400            0    15.959779    29.031511     44.99129  0.041023165 
   16500            0    15.958076    29.031533    44.989609  0.040864886 
   16600            0    15.957503    29.031538    44.989042  0.040812374 
   16700            0    15.955663    29.031566    44.987229  0.040640416 
   16800            0     15.95062    29.031649     44.98227  0.040165079 
   16900            0    15.949959    29.031652    44.981611  0.040105921 
   17000            0    15.948025     29.03168    44.979704   0.03992304 
   17100            0    15.941985    29.031709    44.973694  0.039375644 
   17200            0    15.937798    29.031841    44.969639  0.038966406 
   17300            0    15.934023    29.031868    44.965891  0.038619457 
   17400            0    15.929306    29.031939    44.961245  0.038145811 
   17500            0    15.923809    29.032355    44.956163  0.037558963 
   17600            0     15.92265    29.031984    44.954634  0.037567017 
   17700            0    15.917376    29.032181    44.949557   0.03702615 
   17800            0    15.915467    29.032034    44.947501  0.036938415 
   17900            0    15.914545      29.0321    44.946645  0.036816309 
   18000            0    15.910871    29.032252    44.943123  0.036456458 
   18100            0    15.907753    29.032168    44.939921  0.036214277 
   18200            0    15.906638    29.032161    44.938799   0.03611668 
   18300            0    15.903477    29.032356    44.935834  0.035763878 
   18400            0    15.902691    29.032197    44.934888  0.035768427 
   18500            0    15.899685    29.032256    44.931941  0.035496026 
   18600            0    15.898033    29.032231    44.930264  0.035361267 
   18700            0    15.895965    29.032243    44.928209  0.035177693 
   18800            0    15.893454    29.032265    44.925718  0.034966367 
   18900            0    15.892483    29.032267     44.92475  0.034884159 
   19000            0    15.889387    29.032282    44.921669  0.034616945 
   19100            0    15.888372    29.032315    44.920687     0.034522 
   19200            0    15.886066    29.032329    44.918395  0.034329486 
   19300            0     15.88299    29.032363    44.915353  0.034049382 
   19400            0    15.880528    29.032397    44.912925  0.033838656 
   19500            0    15.879605    29.032393    44.911998  0.033760611 
   19600            0    15.878677    29.032406    44.911083  0.033679324 
   19700            0    15.877953    29.032407     44.91036  0.033618583 
   19800            0    15.875844    29.032414    44.908258  0.033441156 
   19900            0    15.875251    29.032436    44.907687  0.033386105 
   20000            0    15.874744    29.032436     44.90718  0.033342252 
   20100            0    15.871924    29.032487    44.904411  0.033089315 
   20200            0    15.869477    29.032611    44.902089  0.032850321 
   20300            0    15.867242    29.032484    44.899725  0.032729147 
   20400            0    15.866406    29.032511    44.898917  0.032632593 
   20500            0    15.865832    29.032507    44.898339  0.032586747 
   20600            0    15.863881    29.032533    44.896414  0.032423285 
   20700            0    15.862684    29.032528    44.895213  0.032323586 
   20800            0    15.860999    29.032555    44.893554  0.032177905 
   20900            0    15.860765    29.032541    44.893305   0.03216247 
   21000            0    15.858214    29.032516     44.89073   0.03195127 
   21100            0    15.857548    29.032563     44.89011  0.031893371 
   21200            0      15.8569    29.032566    44.889466  0.031840244 
   21300            0    15.853913    29.032717     44.88663  0.031545307 
   21400            0    15.853015    29.032528    44.885542  0.031584798 
   21500            0    15.852251    29.032586    44.884837  0.031459071 
   21600            0    15.850833    29.032606    44.883439   0.03134087 
   21700            0    15.848957      29.0326    44.881557  0.031193331 
   21800            0    15.844951    29.032678    44.877629  0.030832882 
   21900            0    15.844107    29.032586    44.876693  0.030812238 
   22000            0    15.842472    29.032606    44.875078  0.030676831 
   22100            0    15.840478    29.032659    44.873137  0.030508284 
   22200            0    15.838633    29.032661    44.871295  0.030362049 
   22300            0    15.836365    29.032609    44.868973  0.030192574 
   22400            0    15.833923    29.032685    44.866608  0.029996679 
   22500            0     15.83262    29.032596    44.865216  0.029903007 
   22600            0    15.831598    29.032599    44.864197  0.029819366 
   22700            0    15.831254    29.032595     44.86385  0.029793464 
   22800            0     15.83044    29.032596    44.863036  0.029730593 
   22900            0    15.828223     29.03269    44.860913  0.029532009 
   23000            0     15.82715    29.032556    44.859707  0.029486679 
   23100            0    15.824448    29.032257    44.856705  0.029360378 
   23200            0    15.823335    29.032605     44.85594  0.029178727 
   23300            0    15.821219    29.032653    44.853873  0.029004552 
   23400            0    15.818295    29.032783    44.851078  0.028724758 
   23500            0    15.817532    29.032538     44.85007  0.028757713 
   23600            0    15.815535     29.03264    44.848175  0.028570532 
   23700            0    15.813573    29.032453    44.846026  0.028470785 
   23800            0    15.813208    29.032515    44.845723  0.028429547 
   23900            0    15.810854     29.03264    44.843494   0.02820973 
   24000            0    15.809662    29.032592    44.842254  0.028132867 
   24100            0    15.808642     29.03251    44.841152  0.028071639 
   24200            0    15.808133    29.032506    44.840639  0.028036901 
   24300            0    15.807054     29.03251    44.839564  0.027952647 
   24400            0     15.80505    29.032505    44.837555   0.02779306 
   24500            0    15.803878    29.032474    44.836352  0.027716608 
   24600            0    15.802967     29.03247    44.835438  0.027644426 
   24700            0    15.801162    29.032435    44.833597  0.027515256 
   24800            0    15.799695    29.032444    44.832139  0.027399996 
   24900            0    15.797142    29.032183    44.829325  0.027300921 
   25000            0    15.795189    29.032402    44.827591  0.027201332 
   25100            0    15.794884    29.032435    44.827318  0.027038022 
   25200            0    15.794318    29.032392     44.82671  0.027006716 
   25300            0    15.792636    29.032382    44.825019  0.026882266 
   25400            0    15.792255     29.03238    44.824635  0.026853445 
   25500            0    15.789713    29.032345    44.822058  0.026669758 
   25600            0    15.788089    29.032321    44.820411  0.026553587 
   25700            0    15.786702     29.03232    44.819022  0.026450329 
   25800            0    15.785917    29.032308    44.818225  0.026395605 
   25900            0    15.785032    29.032291    44.817323    0.0263276 
   26000            0     15.78395    29.032282    44.816232  0.026252949 
   26100            0    15.783623    29.032276      44.8159  0.026232075 
   26200            0    15.783006     29.03227    44.815276  0.026187627 
   26300            0    15.781009    29.032195    44.813204  0.026065022 
   26400            0    15.779537    29.032243     44.81178  0.025935564 
   26500            0    15.779226    29.032228    44.811454  0.025915621 
   26600            0    15.777173    29.032225    44.809398  0.025761682 
   26700            0     15.77614    29.032207    44.808347  0.025687886 
   26800            0    15.775117    29.032189    44.807306  0.025617486 
   26900            0     15.77451     29.03223    44.806741  0.025574375 
   27000            0    15.773938    29.032187    44.806124  0.025529016 
   27100            0    15.771422    29.032196    44.803618  0.025329654 
   27200            0    15.769666    29.032241    44.801907  0.025185557 
   27300            0    15.768634    29.032164    44.800798  0.025126578 
   27400            0    15.766822    29.032204    44.799026  0.024975204 
   27500            0    15.765025    29.032131    44.797156  0.024856368 
   27600            0    15.764786    29.032124     44.79691  0.024839457 
   27700            0    15.764303    29.032127    44.796429  0.024800525 
   27800            0    15.763965    29.032125     44.79609  0.024774526 
   27900            0    15.761223    29.032728    44.793951  0.024157602 
   28000            0     15.76092    29.032051    44.792971  0.024559043 
   28100            0    15.759916     29.03209    44.792006  0.024468509 
   28200            0    15.759435    29.032103    44.791538  0.024431963 
   28300            0    15.759028    29.032098    44.791125  0.024396909 
   28400            0    15.757169    29.032066    44.789235  0.024257064 
   28500            0    15.756586    29.032084    44.788671  0.024207839 
   28600            0      15.7561    29.032075    44.788175  0.024172233 
   28700            0    15.754105    29.032178    44.786283  0.023987248 
   28800            0    15.752435    29.032136    44.784571  0.023871056 
   28900            0    15.751201    29.031899    44.783101  0.023831269 
   29000            0     15.75024    29.032034    44.782274  0.023720965 
   29100            0    15.749913    29.032023    44.781937  0.023695719 
   29200            0    15.749682    29.032021    44.781703  0.023677684 
   29300            0    15.748665     29.03199    44.780655  0.023607786 
   29400            0    15.748112    29.032004    44.780116  0.023571202 
   29500            0     15.74715    29.032022    44.779173  0.023475345 
   29600            0    15.746555    29.031996    44.778551  0.023434026 
   29700            0    15.744988    29.031993    44.776981  0.023309538 
   29800            0    15.744753    29.031984    44.776737  0.023293939 
   29900            0    15.744452    29.031979    44.776431  0.023271679 
   30000            0    15.741409    29.032154    44.773563  0.022967762 
   30100            0    15.738788    29.033158    44.771946  0.022510541 
   30200            0    15.736071    29.034381    44.770452  0.021998017 
   30300            0    15.738149    29.031819    44.769968  0.022864245 
   30400            0    15.738116    29.030509    44.768625  0.023131095 
   30500            0    15.735074    29.032482    44.767556  0.022351619 
   30600            0    15.735107    29.031908    44.767015  0.022558879 
   30700            0     15.73362    29.031848    44.765467  0.022449852 
   30800            0    15.732617    29.031924    44.764542  0.022349444 
   30900            0    15.732275     29.03186    44.764135   0.02234545 
   31000            0    15.732115    29.031865     44.76398  0.022329644 
   31100            0    15.730936    29.031865      44.7628  0.022236992 
   31200            0    15.729912    29.031847    44.761759  0.022161833 
   31300            0    15.729637    29.031858    44.761495  0.022143078 
   31400            0     15.72933    29.031834    44.761164  0.022120633 
   31500            0    15.728763    29.031826    44.760589  0.022078925 
   31600            0    15.728637    29.031824    44.760461  0.022069448 
   31700            0    15.728233    29.031824    44.760057  0.022039215 
   31800            0    15.727492    29.031821    44.759313  0.021980743 
   31900            0    15.726294    29.031797     44.75809  0.021893292 
   32000            0    15.724603    29.031615    44.756218  0.021811591 
   32100            0    15.724176    29.031786    44.755962  0.021731096 
   32200            0    15.723013    29.031786    44.754799  0.021640526 
   32300            0    15.721604    29.031794    44.753397  0.021530362 
   32400            0    15.721413    29.031738     44.75315  0.021530945 
   32500            0    15.719973    29.031817     44.75179  0.021399861 
   32600            0    15.719344    29.031721    44.751065  0.021350484 
   32700            0    15.718928    29.031704    44.750632  0.021350192 
   32800            0    15.718802    29.031702    44.750504  0.021341149 
   32900            0     15.71862    29.031701    44.750321  0.021327796 
   33000            0    15.717924    29.031692    44.749616  0.021274583 
   33100            0     15.71746    29.031686    44.749146  0.021246063 
   33200            0    15.717208    29.031682     44.74889  0.021223097 
   33300            0    15.716749    29.031705    44.748454  0.021189073 
   33400            0    15.716245    29.031673    44.747918  0.021151014 
   33500            0    15.716046    29.031669    44.747715  0.021136703 
   33600            0    15.714827     29.03166    44.746487  0.021046539 
   33700            0    15.714505    29.031655     44.74616  0.021023089 
   33800            0    15.713222    29.031633    44.744855  0.020931229 
   33900            0    15.712676    29.031645     44.74432  0.020886921 
   34000            0    15.712335    29.031633    44.743968  0.020864016 
   34100            0    15.712131    29.031631    44.743762  0.020849456 
   34200            0    15.710194    29.031465    44.741659  0.020742592 
   34300            0    15.709943    29.031578    44.741522   0.02069556 
   34400            0    15.709174    29.031621    44.740796  0.020623853 
   34500            0    15.707934    29.031563    44.739497  0.020540515 
   34600            0    15.707726    29.031599    44.739324  0.020517632 
   34700            0    15.707301    29.031593    44.738895  0.020485927 
   34800            0    15.706706    29.031588    44.738294  0.020441222 
   34900            0    15.705956    29.031581    44.737537  0.020384413 
   35000            0    15.705766     29.03158    44.737346  0.020369614 
   35100            0    15.704921    29.031583    44.736504  0.020302782 
   35200            0     15.70471    29.031572    44.736282  0.020289807 
   35300            0    15.704267    29.031569    44.735836  0.020255929 
   35400            0    15.703927    29.031563     44.73549  0.020231801 
   35500            0    15.703347    29.031559    44.734907   0.02018614 
   35600            0     15.70303    29.031556    44.734586  0.020161925 
   35700            0    15.702857    29.031557    44.734413  0.020149273 
   35800            0    15.702599     29.03155    44.734149  0.020129567 
   35900            0    15.701536    29.031511    44.733047  0.020058759 
   36000            0    15.701095    29.031536     44.73263  0.020015083 
   36100            0    15.700621    29.031532    44.732154  0.019978845 
   36200            0    15.699195    29.031582    44.730777  0.019850365 
   36300            0    15.698104     29.03146    44.729564  0.019803024 
   36400            0    15.697867    29.031495    44.729362  0.019771462 
   36500            0    15.696567    29.031612    44.728179  0.019633765 
   36600            0    15.696508    29.031521    44.728029  0.019656133 
   36700            0    15.695196    29.031559    44.726755  0.019541836 
   36800            0    15.695105      29.0315    44.726605  0.019551282 
   36900            0    15.693121    29.031429     44.72455  0.019411806 
   37000            0    15.692245    29.031595     44.72384   0.01930759 
   37100            0    15.692156    29.031398    44.723554  0.019341004 
   37200            0    15.691213      29.0315    44.722713  0.019237546 
   37300            0    15.690609    29.031461     44.72207   0.01920118 
   37400            0    15.690396    29.031464     44.72186  0.019186575 
   37500            0    15.689529    29.031497    44.721026   0.01912443 
   37600            0    15.689209     29.03146     44.72067  0.019095866 
   37700            0    15.688494    29.031484    44.719978  0.019030066 
   37800            0    15.687769    29.031439    44.719208  0.018985789 
   37900            0     15.68691    29.031474    44.718385  0.018904574 
   38000            0    15.686613    29.031451    44.718064  0.018889369 
   38100            0    15.685993    29.031452    44.717445  0.018839832 
   38200            0    15.684691    29.031487    44.716178  0.018735569 
   38300            0    15.683898    29.031477    44.715375  0.018664996 
   38400            0    15.683442    29.031442    44.714884  0.018642663 
   38500            0    15.682982    29.031438     44.71442  0.018610576 
   38600            0    15.682018    29.031454    44.713472   0.01852941 
   38700            0    15.681473    29.031442    44.712915  0.018489179 
   38800            0    15.681269    29.031438    44.712707  0.018474108 
   38900            0     15.68024     29.03144     44.71168  0.018392049 
   39000            0    15.680045    29.031439    44.711484  0.018376673 
   39100            0     15.67957    29.031441    44.711011  0.018338137 
   39200            0    15.679408    29.031438    44.710847  0.018326006 
   39300            0    15.678977    29.031438    44.710415  0.018291507 
   39400            0    15.678893    29.031437     44.71033  0.018285023 
   39500            0    15.678594    29.031437    44.710031  0.018261158 
   39600            0     15.67841    29.031435    44.709845  0.018247018 
   39700            0    15.677804    29.031455    44.709259  0.018192807 
   39800            0    15.677327    29.031423     44.70875  0.018164977 
   39900            0    15.676256    29.031354     44.70761  0.018098483 
   40000            0    15.675164    29.031665    44.706829  0.017927582 
   40100            0    15.675247    29.031455    44.706702  0.017990833 
   40200            0    15.674915    29.031414    44.706329  0.017968417 
   40300            0    15.674661    29.031415    44.706076  0.017955577 
   40400            0    15.674323     29.03141    44.705732  0.017930025 
   40500            0     15.67322    29.031468    44.704687  0.017807206 
   40600            0    15.673142    29.031417    44.704558  0.017834252 
   40700            0    15.672111    29.031387    44.703497  0.017767663 
   40800            0    15.671096    29.031386    44.702482  0.017681001 
   40900            0    15.670059    29.031466    44.701525  0.017575242 
   41000            0    15.669412      29.0313    44.700712  0.017566892 
   41100            0    15.669246    29.031359    44.700606  0.017541306 
   41200            0    15.668913    29.031371    44.700284  0.017511976 
   41300            0    15.667941    29.031394    44.699335  0.017397953 
   41400            0    15.667818    29.031366    44.699184    0.0174273 
   41500            0    15.666314    29.031178    44.697493  0.017360888 
   41600            0    15.665902    29.030977    44.696879  0.017376018 
   41700            0    15.664846    29.031414     44.69626  0.017182621 
   41800            0    15.664458     29.03132    44.695778  0.017178382 
   41900            0    15.663957    29.031293     44.69525  0.017147845 
   42000            0     15.66381    29.031296    44.695106  0.017135628 
   42100            0     15.66359    29.031293    44.694882  0.017119324 
   42200            0    15.662508    29.031321    44.693829  0.017027263 
   42300            0    15.662454    29.031294    44.693748  0.017030866 
   42400            0    15.660573    29.031378     44.69195  0.016855914 
   42500            0    15.660302    29.030818     44.69112  0.016982898 
   42600            0    15.659661    29.031239      44.6909  0.016834195 
   42700            0    15.659542    29.031224    44.690766  0.016821486 
   42800            0    15.658652     29.03122    44.689872  0.016751167 
   42900            0    15.658094    29.031209    44.689302  0.016717789 
   43000            0    15.657926    29.031207    44.689133  0.016697559 
   43100            0    15.657788    29.031204    44.688992  0.016687534 
   43200            0    15.657076     29.03121    44.688285  0.016630128 
   43300            0    15.656844    29.031178    44.688022   0.01662105 
   43400            0    15.656212    29.031184    44.687396  0.016571132 
   43500            0    15.655723    29.031152    44.686875  0.016540477 
   43600            0    15.655437    29.031159    44.686596  0.016515873 
   43700            0    15.654884    29.031153    44.686037  0.016474519 
   43800            0    15.654369    29.031158    44.685527  0.016432506 
   43900            0    15.654219     29.03114    44.685359  0.016425897 
   44000            0    15.654012    29.031136    44.685148  0.016410977 
   44100            0    15.653722    29.031134    44.684856  0.016388818 
   44200            0    15.653327    29.031125    44.684451  0.016359689 
   44300            0    15.652611    29.031144    44.683755  0.016292844 
   44400            0    15.652506    29.031115    44.683621  0.016299488 
   44500            0    15.652328    29.031112    44.683439    0.0162864 
   44600            0    15.652197    29.031109    44.683306  0.016276866 
   44700            0     15.65153    29.031134    44.682664  0.016216896 
   44800            0    15.650627    29.031167    44.681794  0.016130268 
   44900            0    15.650253    29.031104    44.681357  0.016126281 
   45000            0    15.650168    29.031088    44.681257  0.016123851 
   45100            0    15.650048    29.031084    44.681133   0.01611583 
   45200            0    15.649677    29.031082    44.680759  0.016087835 
   45300            0    15.648872    29.031116    44.679988  0.016015881 
   45400            0    15.648771    29.031075    44.679846   0.01601935 
   45500            0    15.648618    29.031068    44.679686  0.016009389 
   45600            0    15.648561    29.031067    44.679627  0.016005327 
   45700            0     15.64841    29.031065    44.679475  0.015994081 
   45800            0    15.647611    29.031079     44.67869  0.015928212 
   45900            0    15.647451     29.03105    44.678502   0.01592369 
   46000            0    15.646742    29.031084    44.677826  0.015843641 
   46100            0    15.646609    29.031044    44.677653  0.015859746 
   46200            0    15.645782    29.031035    44.676816  0.015795103 
   46300            0    15.645004    29.031082    44.676086  0.015725017 
   46400            0    15.644803     29.03103    44.675833  0.015723412 
   46500            0    15.644024    29.031022    44.675046  0.015664587 
   46600            0    15.643874    29.031021    44.674895  0.015654012 
   46700            0    15.643687    29.031018    44.674705  0.015640725 
   46800            0    15.643664    29.031018    44.674682  0.015638937 
   46900            0    15.643595    29.031017    44.674612  0.015633842 
   47000            0    15.642884    29.031033    44.673917  0.015575285 
   47100            0    15.642754    29.031015    44.673769  0.015570045 
   47200            0    15.642481    29.031022    44.673503  0.015556348 
   47300            0    15.642425     29.03101    44.673435  0.015546335 
   47400            0    15.642224    29.031009    44.673232  0.015531178 
   47500            0    15.641894    29.031006    44.672901  0.015506365 
   47600            0    15.641182    29.030999    44.672181  0.015452746 
   47700            0    15.640572    29.031032    44.671604  0.015395598 
   47800            0    15.640501    29.031007    44.671508  0.015396492 
   47900            0    15.640385    29.031002    44.671387  0.015388879 
   48000            0     15.63937    29.030777    44.670147  0.015368996 
   48100            0    15.638023    29.031497     44.66952  0.015069311 
   48200            0    15.638353     29.03096    44.669314  0.015239301 
   48300            0    15.638201    29.030988    44.669189  0.015218914 
   48400            0    15.637432    29.031031    44.668462  0.015124656 
   48500            0    15.636655    29.031083    44.667738  0.015067839 
   48600            0     15.63642    29.030972    44.667392  0.015053479 
   48700            0    15.636345     29.03097    44.667315  0.015074945 
   48800            0    15.636251    29.030979     44.66723   0.01506462 
   48900            0    15.636195    29.030981    44.667176    0.0150597 
   49000            0    15.635174    29.030994    44.666168  0.014980582 
   49100            0    15.635025    29.030978    44.666003    0.0149663 
   49200            0    15.634347    29.031035    44.665382   0.01488001 
   49300            0    15.634011    29.030936    44.664947  0.014900491 
   49400            0    15.633806    29.030963    44.664769  0.014873276 
   49500            0    15.633684    29.030959    44.664642  0.014868238 
   49600            0    15.633596    29.030958    44.664554  0.014861666 
   49700            0    15.633532    29.030957    44.664489  0.014856837 
   49800            0    15.633296    29.030955    44.664251  0.014838676 
   49900            0    15.632708    29.030988    44.663696  0.014782232 
   50000            0    15.632654    29.030956    44.663611  0.014787544 
Loop time of 197.834 on 32 procs for 50000 steps with 35840 atoms

99.8% CPU use with 32 MPI tasks x 1 OpenMP threads

Minimization stats:
  Stopping criterion = max iterations
  Energy initial, next-to-last, final = 
      219.291321872665    44.663611107288   44.6636106956653
  Force two-norm initial, final = 423947.28 26.544557
  Force max component initial, final = 17294.489 4.8103670
  Final line search alpha, max atom move = 0.22232078 1.0694446
  Iterations, force evaluations = 50000 99831

MPI task timing breakdown:
Section |  min time  |  avg time  |  max time  |%varavg| %total
---------------------------------------------------------------
Pair    | 40.777     | 72.36      | 107.32     | 197.8 | 36.58
Bond    | 3.9397     | 6.3682     | 9.1729     |  58.9 |  3.22
Neigh   | 57.761     | 58.129     | 58.886     |   4.1 | 29.38
Comm    | 14.061     | 47.921     | 83.442     | 248.8 | 24.22
Output  | 0.016414   | 0.016728   | 0.018458   |   0.3 |  0.01
Modify  | 0          | 0          | 0          |   0.0 |  0.00
Other   |            | 13.04      |            |       |  6.59

Nlocal:        1120.00 ave        1303 max         841 min
Histogram: 2 2 0 3 2 5 4 7 4 3
Nghost:        1487.56 ave        1757 max        1090 min
Histogram: 2 1 3 2 1 5 6 4 4 4
Neighs:        8938.84 ave       12144 max        5696 min
Histogram: 3 3 2 2 7 2 5 3 4 1

Total # of neighbors = 286043
Ave neighs/atom = 7.9811105
Ave special neighs/atom = 2.3459821
Neighbor list builds = 39209
Dangerous builds = 3
reset_timestep 0

include "in.equilibrate"
variable weak_damp equal 100
variable strong_damp equal 100
variable sigma equal 1.0
variable eps equal 1.0
variable cutoff_replusive equal "2^(1/6)*v_sigma"
variable cutoff_attractive equal "2.5*v_sigma"

timestep 0.005
neighbor        0.5 bin
neigh_modify    delay 0 every 5 check yes
comm_modify     cutoff 2.5

thermo_style custom step temp press etotal vol density enthalpy
thermo 2000

#-----------------------------------------------
# push atoms apart using the soft potential
#----------------------------------------------
pair_style soft ${cutoff_replusive}
pair_style soft 1.12246204830937
variable prefactor equal ramp(0,100)
fix 1 all adapt 1 pair soft a * * v_prefactor
fix 2 rigidChains rigid molecule
  960 rigid bodies with 3840 atoms
fix 3 flexChains nve
run 200000
Per MPI rank memory allocation (min/avg/max) = 8.892 | 8.961 | 9.195 Mbytes
Step Temp Press TotEng Volume Density Enthalpy 
WARNING: Too many warnings: 863234 vs 100. All future warnings will be suppressed (src/thermo.cpp:422)
       0            0  -0.23620874    29.030956      1146880      0.03125    21.472277 
    2000   0.17388928 -0.069978907     29.03306      1146880      0.03125    26.793735 
    4000   0.20743902  0.073882399    29.033734      1146880      0.03125    31.397971 
    6000   0.18339053 -0.035355351     29.03485      1146880      0.03125    27.903478 
    8000   0.25853829 -0.017255469    29.035563      1146880      0.03125    28.483388 
   10000    0.2771197 6.1035758e-05    29.036025      1146880      0.03125    29.037978 
   12000   0.25111148 -0.011167089    29.036491      1146880      0.03125    28.679144 
   14000    0.2778138 0.0064113444    29.036835      1146880      0.03125    29.241998 
   16000   0.21902639 -0.032042197     29.03723      1146880      0.03125     28.01188 
   18000     0.233226  0.028047135    29.037425      1146880      0.03125    29.934934 
   20000   0.20649412 -0.013389953    29.037746      1146880      0.03125    28.609268 
   22000    0.1951276 0.0016998267    29.037964      1146880      0.03125    29.092359 
   24000   0.19007052  0.021799279    29.038125      1146880      0.03125    29.735702 
   26000    0.1943197 -0.0064328431    29.038342      1146880      0.03125    28.832491 
   28000   0.21749827 0.0080862786    29.038443      1146880      0.03125    29.297204 
   30000   0.22387131 -0.0018656269    29.038566      1146880      0.03125    28.978866 
   32000   0.23195426 -0.0024126529    29.038685      1146880      0.03125     28.96148 
   34000   0.24346664 -0.0090562543     29.03879      1146880      0.03125     28.74899 
   36000   0.23659473 0.0024330552    29.038936      1146880      0.03125    29.116794 
   38000     0.236465 -0.0042481093     29.03902      1146880      0.03125    28.903081 
   40000   0.21982923 -0.0030952307    29.039053      1146880      0.03125    28.940006 
   42000   0.22985937 0.0018165161    29.039164      1146880      0.03125    29.097293 
   44000   0.22186275  0.005162363    29.039223      1146880      0.03125    29.204418 
   46000   0.23198157 -0.0045049912    29.039341      1146880      0.03125    28.895181 
   48000   0.22493033 0.0056018204    29.039418      1146880      0.03125    29.218676 
   50000    0.2314135 -0.0095223622    29.039431      1146880      0.03125    28.734716 
   52000   0.23093812  0.005653058    29.039482      1146880      0.03125    29.220379 
   54000   0.22986429 -0.003445133    29.039562      1146880      0.03125    28.929318 
   56000   0.22929666 0.0030392571    29.039654      1146880      0.03125    29.136911 
   58000    0.2315097 0.0024016015     29.03976      1146880      0.03125    29.116612 
   60000   0.23397264 -0.0024525823    29.039612      1146880      0.03125    28.961129 
   62000   0.23486067  0.004255315    29.039788      1146880      0.03125    29.175958 
   64000   0.23700523 -0.0086568077    29.039803      1146880      0.03125    28.762785 
   66000   0.23581768  0.007064875    29.039865      1146880      0.03125    29.265941 
   68000   0.23260026 -0.0048581143    29.039911      1146880      0.03125    28.884452 
   70000   0.23580602 0.0091403551    29.039922      1146880      0.03125    29.332413 
   72000   0.22953719 -0.0052920842    29.039999      1146880      0.03125    28.870653 
   74000   0.23887866 0.0055401755    29.039992      1146880      0.03125    29.217277 
   76000    0.2315143 -0.0043797285    29.040097      1146880      0.03125    28.899946 
   78000   0.23751423 0.0018406152    29.040037      1146880      0.03125    29.098937 
   80000   0.23114698 -0.0038233017    29.040084      1146880      0.03125    28.917739 
   82000   0.23430397 0.0014340952     29.04012      1146880      0.03125    29.086011 
   84000   0.23373188 0.0024713597    29.040214      1146880      0.03125    29.119298 
   86000   0.23340424 -0.00084905653    29.040223      1146880      0.03125    29.013054 
   88000   0.23806976 -0.00059634473    29.040261      1146880      0.03125    29.021178 
   90000   0.23256511 0.0022509749    29.040231      1146880      0.03125    29.112262 
   92000   0.23629605 0.00045283391    29.040242      1146880      0.03125    29.054733 
   94000   0.23223054 0.0016196389    29.040274      1146880      0.03125    29.092103 
   96000   0.23921443 0.0013711649    29.040279      1146880      0.03125    29.084156 
   98000   0.23865743 -0.0057858763    29.040408      1146880      0.03125     28.85526 
  100000   0.23724025 0.0059232516    29.040405      1146880      0.03125    29.229949 
  102000   0.23733703 -0.003141705    29.040431      1146880      0.03125    28.939896 
  104000   0.23409446 -0.00036183097    29.040328      1146880      0.03125    29.028749 
  106000   0.23686571 0.0018109287    29.040484      1146880      0.03125    29.098434 
  108000   0.23366679 -0.00052959841    29.040478      1146880      0.03125    29.023531 
  110000   0.23950519 0.0043412809     29.04057      1146880      0.03125    29.179491 
  112000   0.23544395 -0.0042334031     29.04054      1146880      0.03125    28.905071 
  114000    0.2364597 0.0053568287    29.040545      1146880      0.03125    29.211963 
  116000   0.24033001 -0.0027729221    29.040594      1146880      0.03125    28.951861 
  118000   0.23635697 0.0039200435    29.040574      1146880      0.03125    29.166016 
  120000   0.24014853 0.0024637016    29.040586      1146880      0.03125    29.119424 
  122000    0.2375746 -0.0053906514    29.040813      1146880      0.03125    28.868312 
  124000   0.23890974 0.0075799775    29.040596      1146880      0.03125    29.283155 
  126000   0.23985083 -0.0030884102    29.040603      1146880      0.03125    28.941774 
  128000   0.24259077 0.0034434636    29.040758      1146880      0.03125    29.150949 
  130000   0.24058289 -0.0027148579    29.040817      1146880      0.03125    28.953941 
  132000   0.24077083 -0.00038475322    29.040815      1146880      0.03125    29.028503 
  134000   0.23867975 0.0034043128    29.040843      1146880      0.03125    29.149781 
  136000   0.23961558 -0.0022531496    29.040789      1146880      0.03125    28.968688 
  138000   0.24354241 -0.0016295465    29.040839      1146880      0.03125    28.988694 
  140000   0.23945014 0.0020424382    29.040907      1146880      0.03125    29.106265 
  142000   0.24339724 -0.00071414319    29.040832      1146880      0.03125    29.017979 
  144000   0.24184832 -0.0015600013    29.040939      1146880      0.03125    28.991019 
  146000   0.24173629  0.002964603    29.041001      1146880      0.03125    29.135868 
  148000   0.23988112 -0.0051746032       29.041      1146880      0.03125    28.875413 
  150000   0.24309631 0.0040386861    29.040894      1146880      0.03125    29.170132 
  152000   0.24349446 0.0012093893    29.040984      1146880      0.03125    29.079684 
  154000   0.24163106 -0.004866172    29.041012      1146880      0.03125    28.885294 
  156000   0.24034967 0.0049171229    29.040884      1146880      0.03125    29.198232 
  158000   0.24192758 -0.0003809942    29.041066      1146880      0.03125    29.028874 
  160000   0.24415787 -0.0014408789    29.040905      1146880      0.03125    28.994797 
  162000   0.24128492 0.0031432085    29.041042      1146880      0.03125    29.141625 
  164000   0.24492724 -0.0025075284    29.040931      1146880      0.03125     28.96069 
  166000   0.24341205  0.001575928    29.041123      1146880      0.03125    29.091553 
  168000   0.24285841 0.00017385273    29.041055      1146880      0.03125    29.046619 
  170000   0.24488596 0.0018652446    29.041153      1146880      0.03125    29.100841 
  172000   0.24449292 0.00053029897    29.041026      1146880      0.03125    29.057996 
  174000   0.24306667 -0.00067825123    29.041175      1146880      0.03125    29.019471 
  176000   0.24364425 0.0026856333     29.04118      1146880      0.03125     29.12712 
  178000   0.24403938 0.00075843855    29.041263      1146880      0.03125    29.065533 
  180000   0.24313943 -0.00088144359    29.041157      1146880      0.03125    29.012951 
  182000   0.24404458 0.00048416754    29.041288      1146880      0.03125    29.056781 
  184000     0.245164  0.001628063    29.041306      1146880      0.03125    29.093404 
  186000   0.24640998 -0.00026046993    29.041227      1146880      0.03125    29.032892 
  188000   0.24480658 -0.0013163751    29.041255      1146880      0.03125    28.999131 
  190000   0.24558397 -3.6668776e-05    29.041446      1146880      0.03125    29.040273 
  192000   0.24361926 -6.9107392e-05    29.041394      1146880      0.03125    29.039183 
  194000   0.24574958 0.00047955902     29.04131      1146880      0.03125    29.056656 
  196000   0.24474708 0.0014959755    29.041316      1146880      0.03125    29.089188 
  198000   0.24491964 -0.00039999782    29.041422      1146880      0.03125    29.028622 
  200000    0.2467239 0.0032614579    29.041338      1146880      0.03125    29.145705 
Loop time of 119.296 on 32 procs for 200000 steps with 35840 atoms

Performance: 724251.932 tau/day, 1676.509 timesteps/s
99.9% CPU use with 32 MPI tasks x 1 OpenMP threads

MPI task timing breakdown:
Section |  min time  |  avg time  |  max time  |%varavg| %total
---------------------------------------------------------------
Pair    | 2.4628     | 2.8448     | 3.2508     |  12.0 |  2.38
Bond    | 5.3984     | 7.9557     | 11.015     |  44.4 |  6.67
Neigh   | 6.9213     | 6.9479     | 6.9693     |   0.4 |  5.82
Comm    | 11.176     | 15.087     | 20.141     |  48.7 | 12.65
Output  | 0.005159   | 0.0056184  | 0.0061358  |   0.4 |  0.00
Modify  | 82.224     | 85.027     | 86.919     |  12.8 | 71.27
Other   |            | 1.427      |            |       |  1.20

Nlocal:        1120.00 ave        1393 max         856 min
Histogram: 2 2 3 1 8 5 6 3 0 2
Nghost:        639.500 ave         792 max         513 min
Histogram: 3 2 3 5 7 4 2 4 0 2
Neighs:        997.094 ave        1321 max         762 min
Histogram: 2 5 5 3 4 5 4 3 0 1

Total # of neighbors = 31907
Ave neighs/atom = 0.89026228
Ave special neighs/atom = 2.3459821
Neighbor list builds = 10527
Dangerous builds = 0
unfix 1
unfix 2
unfix 3

# Switch to LJ potential
reset_timestep 0
pair_style lj/cut ${cutoff_attractive}
pair_style lj/cut 2.5
pair_coeff * * 0 1.0
pair_coeff 1 1 1.0 1.0 ${cutoff_replusive}
pair_coeff 1 1 1.0 1.0 1.12246204830937
pair_coeff 2 2 1.0 1.0 ${cutoff_replusive}
pair_coeff 2 2 1.0 1.0 1.12246204830937
pair_coeff 1 2 1.0 1.0 ${cutoff_attractive}
pair_coeff 1 2 1.0 1.0 2.5
run 0
Neighbor list info ...
  update every 5 steps, delay 0 steps, check yes
  max neighbors/atom: 2000, page size: 100000
  master list distance cutoff = 3
  ghost atom cutoff = 3
  binsize = 1.5, bins = 70 70 70
  1 neighbor lists, perpetual/occasional/extra = 1 0 0
  (1) pair lj/cut, perpetual
      attributes: half, newton on
      pair build: half/bin/newton
      stencil: half/bin/3d
      bin: standard
Per MPI rank memory allocation (min/avg/max) = 7.244 | 7.402 | 7.541 Mbytes
Step Temp Press TotEng Volume Density Enthalpy 
       0   0.23350618 -0.0053343522    29.022178      1146880      0.03125    28.851478 
Loop time of 4.29809e-06 on 32 procs for 0 steps with 35840 atoms

123.6% CPU use with 32 MPI tasks x 1 OpenMP threads

MPI task timing breakdown:
Section |  min time  |  avg time  |  max time  |%varavg| %total
---------------------------------------------------------------
Pair    | 0          | 0          | 0          |   0.0 |  0.00
Bond    | 0          | 0          | 0          |   0.0 |  0.00
Neigh   | 0          | 0          | 0          |   0.0 |  0.00
Comm    | 0          | 0          | 0          |   0.0 |  0.00
Output  | 0          | 0          | 0          |   0.0 |  0.00
Modify  | 0          | 0          | 0          |   0.0 |  0.00
Other   |            | 4.298e-06  |            |       |100.00

Nlocal:        1120.00 ave        1393 max         856 min
Histogram: 2 2 3 1 8 5 6 3 0 2
Nghost:        795.188 ave         994 max         657 min
Histogram: 4 2 2 9 6 3 2 2 1 1
Neighs:        1092.44 ave        1759 max         765 min
Histogram: 4 4 6 6 6 5 0 0 0 1

Total # of neighbors = 34958
Ave neighs/atom = 0.97539062
Ave special neighs/atom = 2.3459821
Neighbor list builds = 0
Dangerous builds = 0

# Minimize energy with box/relax
min_style sd
fix b0 all box/relax iso 1 vmax 0.001
minimize 1e-50 1e-50 50000 100000
Per MPI rank memory allocation (min/avg/max) = 8.369 | 8.527 | 8.666 Mbytes
Step Temp Press TotEng Volume Density Enthalpy 
       0   0.23350618 -0.0053343522    29.022178      1146880      0.03125    28.851478 
      51   0.23350618    1.0127902    30.854896    984852.21  0.036391247    58.685494 
Loop time of 0.0446819 on 32 procs for 51 steps with 35840 atoms

98.7% CPU use with 32 MPI tasks x 1 OpenMP threads

Minimization stats:
  Stopping criterion = linesearch alpha is zero
  Energy initial, next-to-last, final = 
       28.671928087943   25.9837818304305   25.9837818304305
  Force two-norm initial, final = 3484107.4 25442.463
  Force max component initial, final = 3484099.5 13343.935
  Final line search alpha, max atom move = 5.7174996e-13 7.6293945e-09
  Iterations, force evaluations = 51 86

MPI task timing breakdown:
Section |  min time  |  avg time  |  max time  |%varavg| %total
---------------------------------------------------------------
Pair    | 0.0018457  | 0.0023686  | 0.0034062  |   0.7 |  5.30
Bond    | 0.0042681  | 0.0059657  | 0.0084922  |   1.3 | 13.35
Neigh   | 0.019459   | 0.019582   | 0.019719   |   0.1 | 43.83
Comm    | 0.0054999  | 0.0080647  | 0.011078   |   1.6 | 18.05
Output  | 0          | 0          | 0          |   0.0 |  0.00
Modify  | 0          | 0          | 0          |   0.0 |  0.00
Other   |            | 0.008701   |            |       | 19.47

Nlocal:        1120.00 ave        1393 max         856 min
Histogram: 2 2 3 1 8 5 6 3 0 2
Nghost:        842.344 ave        1039 max         695 min
Histogram: 4 2 1 8 6 5 2 2 1 1
Neighs:        1304.34 ave        2045 max         939 min
Histogram: 4 6 4 6 6 5 0 0 0 1

Total # of neighbors = 41739
Ave neighs/atom = 1.1645926
Ave special neighs/atom = 2.3459821
Neighbor list builds = 26
Dangerous builds = 0
unfix b0
reset_timestep 0

dump 1 rigidChains custom 10000 dump.rigidChains.lammpstrj id type mol x y z ix iy iz
dump_modify 1 sort id
dump 2 flexChains custom 10000 dump.flexChains.lammpstrj id type mol x y z ix iy iz
dump_modify 2 sort id

# Equlibrate
fix 1 flexChains langevin 1.0 1.0 100 1534 zero yes
fix 4 rigidChains rigid molecule langevin 1.0 1.0 100 2129
  960 rigid bodies with 3840 atoms
fix 3 flexChains nve
fix 5 all momentum 20000 linear 1 1 1
run 1000000
Per MPI rank memory allocation (min/avg/max) = 11.24 | 11.40 | 11.54 Mbytes
Step Temp Press TotEng Volume Density Enthalpy 
       0    0.2467239   0.85890638    30.854896    984852.21  0.036391247    54.456901 
    2000    1.0189552 -0.029191052    30.856851    984852.21  0.036391247    30.054706 
    4000    1.0612269 -0.025527437     30.83755    984852.21  0.036391247    30.136078 
    6000    1.0864665 0.0052132337    30.820254    984852.21  0.036391247     30.96351 
    8000    1.1003878  0.003268239    30.795293    984852.21  0.036391247    30.885102 
   10000    1.0966721 -0.00076830275    30.766967    984852.21  0.036391247    30.745855 
   12000    1.1071187 -0.0035243004    30.735801    984852.21  0.036391247    30.638956 
   14000    1.1052256 0.00029027523    30.704614    984852.21  0.036391247     30.71259 
   16000    1.0989422  0.001470799    30.672265    984852.21  0.036391247    30.712681 
   18000    1.0955893 0.0028397623    30.639978    984852.21  0.036391247    30.718012 
   20000    1.1009967  0.003721361    30.617441    984852.21  0.036391247      30.7197 
   22000    1.0925293 0.0030870472    30.592806    984852.21  0.036391247    30.677635 
   24000    1.0832629 0.0029186821    30.564179    984852.21  0.036391247    30.644382 
   26000    1.0752612  0.006220986    30.537246    984852.21  0.036391247    30.708193 
   28000    1.0720353 0.0021966882    30.516489    984852.21  0.036391247    30.576852 
   30000    1.0682483 0.0021476937    30.490577    984852.21  0.036391247    30.549594 
   32000    1.0588771 0.0018801847    30.475174    984852.21  0.036391247    30.526839 
   34000    1.0537188 0.0055144426    30.460956    984852.21  0.036391247    30.612488 
   36000    1.0533668 0.0013427443    30.444043    984852.21  0.036391247    30.480941 
   38000    1.0495293 0.0077137175    30.438869    984852.21  0.036391247    30.650835 
   40000    1.0509107 -0.002119327    30.427201    984852.21  0.036391247    30.368964 
   42000    1.0423457 -0.0011490424    30.410431    984852.21  0.036391247    30.378856 
   44000    1.0392011 0.0023421246    30.396558    984852.21  0.036391247    30.460917 
   46000    1.0353089 -0.00080225336    30.383476    984852.21  0.036391247    30.361431 
   48000     1.022487  0.006237333    30.371788    984852.21  0.036391247    30.543185 
   50000    1.0366108 0.0016278808    30.381275    984852.21  0.036391247    30.426008 
   52000    1.0350954 0.0038834525    30.371371    984852.21  0.036391247    30.478084 
   54000    1.0294518 -0.0011403021    30.363944    984852.21  0.036391247     30.33261 
   56000    1.0258245 -0.0015453716    30.359701    984852.21  0.036391247    30.317236 
   58000    1.0231874 0.0012739732    30.351265    984852.21  0.036391247    30.386273 
   60000    1.0252805 0.0021032469    30.344129    984852.21  0.036391247    30.401924 
   62000    1.0233393  0.002349599    30.337506    984852.21  0.036391247    30.402071 
   64000    1.0190462 -0.0021663267    30.332268    984852.21  0.036391247    30.272739 
   66000    1.0179135 -0.00022167993     30.32342    984852.21  0.036391247    30.317329 
   68000    1.0220202 0.0042517124    30.316979    984852.21  0.036391247    30.433813 
   70000    1.0140402 -0.005070029    30.314293    984852.21  0.036391247    30.174973 
   72000    1.0103538 0.0048905228    30.307436    984852.21  0.036391247    30.441824 
   74000    1.0098253 0.0026644394    30.308052    984852.21  0.036391247    30.381268 
   76000     1.007737 0.0046387947    30.300988    984852.21  0.036391247    30.428458 
   78000    1.0035016 -0.0012155126     30.29694    984852.21  0.036391247    30.263539 
   80000    1.0100494 -0.0017071845    30.298254    984852.21  0.036391247    30.251343 
   82000    1.0035302 -0.0023624047    30.293994    984852.21  0.036391247    30.229077 
   84000    1.0035418 -0.0015855763    30.294643    984852.21  0.036391247    30.251073 
   86000    1.0021524 0.00073614667    30.289825    984852.21  0.036391247    30.310054 
   88000    1.0032342 0.0049229607    30.287476    984852.21  0.036391247    30.422754 
   90000    1.0024747 -0.0023007795    30.283863    984852.21  0.036391247     30.22064 
   92000    1.0049933 0.0029281862    30.291822    984852.21  0.036391247    30.372286 
   94000    1.0061045 -0.0024844778    30.296337    984852.21  0.036391247    30.228066 
   96000    1.0061359 0.0061294644    30.292765    984852.21  0.036391247    30.461197 
   98000    1.0039136 -0.0003587729    30.289045    984852.21  0.036391247    30.279186 
  100000    1.0025915 0.0026213797     30.27933    984852.21  0.036391247    30.351363 
  102000    1.0052413 -0.0017878802    30.278682    984852.21  0.036391247    30.229553 
  104000    1.0062474 -0.0029760597    30.280838    984852.21  0.036391247    30.199058 
  106000   0.99734474 0.0044086027    30.282861    984852.21  0.036391247    30.404006 
  108000   0.99937627  0.002078318    30.282874    984852.21  0.036391247    30.339984 
  110000    1.0027519 0.0052201209    30.282369    984852.21  0.036391247    30.425814 
  112000   0.99702725 -0.0013286683    30.278999    984852.21  0.036391247    30.242488 
  114000     1.001868 0.00072465951    30.279488    984852.21  0.036391247    30.299401 
  116000    1.0069362 -0.0021520079    30.283822    984852.21  0.036391247    30.224686 
  118000    1.0015635 0.0025814731    30.277875    984852.21  0.036391247    30.348811 
  120000    1.0012207 0.00056285739    30.276214    984852.21  0.036391247    30.291681 
  122000    1.0044519 0.0018884328    30.281129    984852.21  0.036391247    30.333022 
  124000    1.0065979 0.0019091788    30.278899    984852.21  0.036391247    30.331361 
  126000    1.0048396 0.0025044549    30.283006    984852.21  0.036391247    30.351827 
  128000    1.0060055 0.00026679145    30.277233    984852.21  0.036391247    30.284564 
  130000    1.0035939 0.0025712139    30.268661    984852.21  0.036391247    30.339316 
  132000    1.0008031  0.000702602    30.265622    984852.21  0.036391247    30.284929 
  134000   0.99565443  0.004955811    30.263442    984852.21  0.036391247    30.399624 
  136000   0.99847891 0.0014653299    30.272041    984852.21  0.036391247    30.312307 
  138000    1.0022264 0.0031841424    30.274881    984852.21  0.036391247    30.362378 
  140000   0.99995652 0.0022495282     30.27445    984852.21  0.036391247    30.336265 
  142000    1.0038112 0.0045739204    30.270457    984852.21  0.036391247    30.396144 
  144000    1.0004751 -0.0014789397    30.269296    984852.21  0.036391247    30.228656 
  146000    1.0022957 0.0013142303     30.26959    984852.21  0.036391247    30.305704 
  148000   0.99847237 0.0017980391    30.270268    984852.21  0.036391247    30.319677 
  150000   0.99192913 0.0020028129     30.27102    984852.21  0.036391247    30.326056 
  152000   0.99332662 -0.0010678307     30.26207    984852.21  0.036391247    30.232727 
  154000   0.99723112 0.00031735042    30.268603    984852.21  0.036391247    30.277323 
  156000   0.99395113 -0.0025217278    30.270334    984852.21  0.036391247    30.201039 
  158000   0.99499523 0.0036128464    30.263057    984852.21  0.036391247    30.362335 
  160000   0.99858138 0.0050140895    30.268307    984852.21  0.036391247    30.406089 
  162000   0.99812196 -0.0045327912    30.271338    984852.21  0.036391247    30.146781 
  164000    1.0022636 -0.0010424963    30.269745    984852.21  0.036391247    30.241098 
  166000    1.0010927 0.0024500853    30.271836    984852.21  0.036391247    30.339162 
  168000   0.99605937 0.00059222132    30.270845    984852.21  0.036391247    30.287119 
  170000   0.99677694 0.0047369256    30.271682    984852.21  0.036391247    30.401848 
  172000   0.99453172 0.00096813346    30.267981    984852.21  0.036391247    30.294585 
  174000   0.99960351 0.00028777149    30.261884    984852.21  0.036391247    30.269792 
  176000   0.99876577 -0.0039495032    30.264392    984852.21  0.036391247    30.155863 
  178000   0.99618913 0.0077772382    30.270343    984852.21  0.036391247    30.484055 
  180000   0.99682519 0.0056818597    30.269114    984852.21  0.036391247    30.425246 
  182000   0.99994554 0.00060537632    30.271769    984852.21  0.036391247    30.288404 
  184000   0.99676265 -0.0031589589    30.269945    984852.21  0.036391247    30.183139 
  186000    1.0004533 0.00088255821    30.268306    984852.21  0.036391247    30.292558 
  188000   0.99605959 -0.0008441815    30.268946    984852.21  0.036391247    30.245748 
  190000   0.99513535 0.0056926204    30.264251    984852.21  0.036391247    30.420679 
  192000   0.99894748 0.0025899238    30.270732    984852.21  0.036391247    30.341901 
  194000    1.0103711 0.0026403376    30.280726    984852.21  0.036391247     30.35328 
  196000    1.0008859 -0.0023579504    30.276736    984852.21  0.036391247    30.211941 
  198000   0.99957023 0.0029629365    30.273689    984852.21  0.036391247    30.355108 
  200000   0.99693695 0.0053360755    30.264372    984852.21  0.036391247    30.411003 
  202000   0.99371839 0.0011559731    30.258761    984852.21  0.036391247    30.290526 
  204000   0.99893289 -0.0011973649    30.256567    984852.21  0.036391247    30.223665 
  206000   0.99936453 0.00097102435    30.255766    984852.21  0.036391247    30.282449 
  208000   0.99589633 0.0022071989    30.256339    984852.21  0.036391247    30.316991 
  210000   0.99028109 -0.0018079932    30.257038    984852.21  0.036391247    30.207356 
  212000   0.99489927 -0.00090949099      30.2564    984852.21  0.036391247    30.231408 
  214000    0.9921222 -0.0021559952     30.25569    984852.21  0.036391247    30.196445 
  216000   0.99463001 0.0024212059    30.254083    984852.21  0.036391247    30.320616 
  218000   0.99698617 -0.0023338772    30.260253    984852.21  0.036391247     30.19612 
  220000   0.99863675 -0.00032882248    30.270632    984852.21  0.036391247    30.261596 
  222000     1.002137 0.0009485973    30.269533    984852.21  0.036391247    30.295599 
  224000    1.0007028  0.000704497    30.274696    984852.21  0.036391247    30.294055 
  226000    1.0014525 0.0076551092    30.269485    984852.21  0.036391247     30.47984 
  228000    0.9996548 0.0042553753    30.260345    984852.21  0.036391247    30.377279 
  230000   0.99778591 0.0016631897    30.262727    984852.21  0.036391247     30.30843 
  232000   0.99902999 0.0016210171    30.264031    984852.21  0.036391247    30.308575 
  234000   0.99818337 0.0024447074    30.269064    984852.21  0.036391247    30.336243 
  236000   0.99610609 -0.0040934337    30.262349    984852.21  0.036391247    30.149865 
  238000   0.99530626 -0.001988595    30.260853    984852.21  0.036391247    30.206208 
  240000   0.99809763 -0.0038356754    30.261777    984852.21  0.036391247    30.156376 
  242000   0.99978575 0.0016481063    30.264003    984852.21  0.036391247    30.309292 
  244000   0.99671104 -0.0015158007     30.26263    984852.21  0.036391247    30.220977 
  246000   0.99896275 -0.0022670857    30.266201    984852.21  0.036391247    30.203904 
  248000    1.0006359 -0.00086011353    30.274006    984852.21  0.036391247    30.250371 
  250000   0.99689878 0.00048089247    30.265609    984852.21  0.036391247    30.278824 
  252000   0.99719522 0.0023971008    30.267784    984852.21  0.036391247    30.333654 
  254000   0.99501241 -0.003612856    30.273065    984852.21  0.036391247    30.173787 
  256000   0.99878654 0.0034562906    30.266783    984852.21  0.036391247    30.361759 
  258000   0.99754501 0.0038168699    30.264519    984852.21  0.036391247    30.369404 
  260000   0.99531012  0.005865583    30.262036    984852.21  0.036391247    30.423217 
  262000   0.99755975 -0.0026563393    30.259433    984852.21  0.036391247    30.186439 
  264000   0.99602171 0.00018035766    30.260475    984852.21  0.036391247    30.265431 
  266000   0.99433467 -0.0017818624    30.261662    984852.21  0.036391247    30.212698 
  268000     1.001698 0.0035427886    30.256608    984852.21  0.036391247    30.353961 
  270000   0.99893342 0.0016572215    30.261064    984852.21  0.036391247    30.306603 
  272000   0.99303419 -0.00013853131     30.25442    984852.21  0.036391247    30.250613 
  274000   0.99936281 -0.0010226217    30.258179    984852.21  0.036391247    30.230078 
  276000   0.99299695 0.0015159408    30.258352    984852.21  0.036391247    30.300009 
  278000   0.99787144 -0.0030886487    30.266798    984852.21  0.036391247    30.181924 
  280000    1.0030257 0.0025338759    30.268004    984852.21  0.036391247    30.337632 
  282000   0.99866784  0.001369536    30.267695    984852.21  0.036391247    30.305329 
  284000   0.99731499 0.00082315357    30.265626    984852.21  0.036391247    30.288246 
  286000   0.99873774 0.0016016666    30.265314    984852.21  0.036391247    30.309326 
  288000   0.99974216 -0.0002598022    30.267643    984852.21  0.036391247    30.260504 
  290000    1.0077724 -0.0022765409    30.272913    984852.21  0.036391247    30.210356 
  292000    1.0067284 0.00072721685    30.277821    984852.21  0.036391247    30.297804 
  294000    1.0061402 0.00064220144     30.27598    984852.21  0.036391247    30.293627 
  296000    1.0028821 0.0049703717     30.26821    984852.21  0.036391247    30.404791 
  298000    1.0036123 -0.00082579835    30.269616    984852.21  0.036391247    30.246923 
  300000    1.0056977 0.0048521431    30.274983    984852.21  0.036391247    30.408315 
  302000    1.0038736 0.00036818093    30.275742    984852.21  0.036391247     30.28586 
  304000    1.0086506 0.0043947948    30.277017    984852.21  0.036391247    30.397782 
  306000    1.0100769 -0.0013824064    30.277598    984852.21  0.036391247    30.239611 
  308000    1.0098343 0.0027993654      30.2762    984852.21  0.036391247    30.353124 
  310000     1.013656 -0.000320988    30.281139    984852.21  0.036391247    30.272319 
  312000    1.0042115 -0.0017728153    30.274171    984852.21  0.036391247    30.225456 
  314000    1.0059346 0.0017236528    30.269224    984852.21  0.036391247    30.316589 
  316000    1.0009161 -0.0012940887    30.262165    984852.21  0.036391247    30.226605 
  318000    1.0039399 -0.0045467363    30.265357    984852.21  0.036391247    30.140417 
  320000     1.000808 -0.0019786009    30.261879    984852.21  0.036391247    30.207509 
  322000   0.99969457 0.0042414198    30.258578    984852.21  0.036391247    30.375129 
  324000   0.99775786 0.00099270325    30.263369    984852.21  0.036391247    30.290648 
  326000     1.002546 -0.0015788088    30.266772    984852.21  0.036391247    30.223388 
  328000   0.99721535 0.00095857907    30.261475    984852.21  0.036391247    30.287816 
  330000    1.0030196 8.576913e-05    30.266351    984852.21  0.036391247    30.268708 
  332000    1.0022907 3.8669675e-05    30.262169    984852.21  0.036391247    30.263232 
  334000    1.0046179 0.0020644137    30.268074    984852.21  0.036391247    30.324802 
  336000    1.0013753 -0.001162371    30.258962    984852.21  0.036391247    30.227021 
  338000    1.0043042 -0.0048400133    30.266424    984852.21  0.036391247    30.133425 
  340000   0.99865488 -0.00033218995    30.268002    984852.21  0.036391247    30.258874 
  342000    0.9973915 0.0013512217    30.263752    984852.21  0.036391247    30.300882 
  344000    1.0018597 0.0023588676     30.26208    984852.21  0.036391247      30.3269 
  346000   0.99852394 0.0055398406    30.265519    984852.21  0.036391247    30.417749 
  348000    1.0057949 -0.0065751592    30.267631    984852.21  0.036391247    30.086951 
  350000    1.0056301 0.00069439827    30.263862    984852.21  0.036391247    30.282943 
  352000    1.0026382 -5.5895028e-05     30.27124    984852.21  0.036391247    30.269704 
  354000    1.0067761 0.0005511395    30.268138    984852.21  0.036391247    30.283283 
  356000    1.0032686 0.0015058669    30.264976    984852.21  0.036391247    30.306355 
  358000    1.0010656 0.0025524576    30.260125    984852.21  0.036391247    30.330264 
  360000    1.0082945 -0.0031320768    30.267047    984852.21  0.036391247     30.18098 
  362000    1.0025481 0.0010429018    30.261403    984852.21  0.036391247    30.290061 
  364000    1.0029225 -0.0024447451    30.265386    984852.21  0.036391247    30.198207 
  366000    1.0011576 0.00063332705    30.265592    984852.21  0.036391247    30.282995 
  368000      1.00305 0.0013238432    30.266647    984852.21  0.036391247    30.303025 
  370000       1.0017 0.0034429132    30.263464    984852.21  0.036391247    30.358073 
  372000    1.0021098 -0.0038608666    30.268253    984852.21  0.036391247     30.16216 
  374000    1.0048903 -0.0015806729    30.268381    984852.21  0.036391247    30.224946 
  376000    1.0042721 -0.0020316733    30.266879    984852.21  0.036391247    30.211051 
  378000    1.0038182 -0.0017134085     30.27216    984852.21  0.036391247    30.225077 
  380000    1.0068025 -0.0014212316    30.274188    984852.21  0.036391247    30.235134 
  382000   0.99950859 -0.0035354557    30.268669    984852.21  0.036391247    30.171517 
  384000    1.0003613 0.00078041949     30.26241    984852.21  0.036391247    30.283855 
  386000    1.0009774 -0.0034683555    30.258679    984852.21  0.036391247    30.163372 
  388000     1.005653 -0.00014617006    30.265005    984852.21  0.036391247    30.260988 
  390000   0.99962217 0.0036870621     30.25643    984852.21  0.036391247    30.357748 
  392000    1.0049454 0.0019392272    30.270873    984852.21  0.036391247    30.324161 
  394000    1.0033725 0.0040205303    30.259849    984852.21  0.036391247    30.370329 
  396000   0.99521842 0.0041867262    30.255645    984852.21  0.036391247    30.370693 
  398000   0.99849114 0.0018019894     30.25757    984852.21  0.036391247    30.307087 
  400000    1.0016523 -0.0038655527    30.266779    984852.21  0.036391247    30.160557 
  402000    1.0031313 -0.00039008036    30.261546    984852.21  0.036391247    30.250827 
  404000    1.0030438 6.3540203e-05    30.267169    984852.21  0.036391247    30.268915 
  406000    1.0088892 -0.00058330465    30.277665    984852.21  0.036391247    30.261636 
  408000    1.0054818 0.0031447846    30.269994    984852.21  0.036391247     30.35641 
  410000     1.011503 0.0037983818    30.275575    984852.21  0.036391247    30.379952 
  412000    1.0064053 0.00074743407    30.268624    984852.21  0.036391247    30.289163 
  414000     1.010527 0.0012355512    30.275325    984852.21  0.036391247    30.309277 
  416000     1.009688 0.0023478343    30.269312    984852.21  0.036391247    30.333828 
  418000    1.0067971 0.00010845027    30.266663    984852.21  0.036391247    30.269643 
  420000    1.0028505 0.0021976357    30.269564    984852.21  0.036391247    30.329953 
  422000    1.0072981 0.0048276508    30.264636    984852.21  0.036391247    30.397296 
  424000     1.002111 0.0081852772    30.257936    984852.21  0.036391247     30.48286 
  426000    1.0038077 0.00053888765    30.259545    984852.21  0.036391247    30.274353 
  428000    1.0030848 -0.0026379452    30.261121    984852.21  0.036391247    30.188632 
  430000    1.0015602 0.0020837538    30.265397    984852.21  0.036391247    30.322656 
  432000    1.0092253 -0.00054302054    30.260573    984852.21  0.036391247    30.245651 
  434000    1.0007598 0.0065441903    30.252863    984852.21  0.036391247    30.432692 
  436000    1.0002671 0.0037608843    30.250178    984852.21  0.036391247    30.353523 
  438000   0.99936339 0.0010226741    30.250962    984852.21  0.036391247    30.279064 
  440000    1.0030662 0.0072836621     30.25976    984852.21  0.036391247    30.459909 
  442000   0.99886069 -0.0029219988    30.258167    984852.21  0.036391247    30.177873 
  444000    1.0063266 0.0049983713    30.267264    984852.21  0.036391247    30.404615 
  446000    1.0000192 0.0016379993     30.26769    984852.21  0.036391247    30.312701 
  448000    1.0058495 0.0017627547    30.260834    984852.21  0.036391247    30.309273 
  450000    1.0047884 0.0014047271    30.264177    984852.21  0.036391247    30.302777 
  452000    1.0006877 0.0032748377    30.255541    984852.21  0.036391247    30.345531 
  454000   0.99946839 0.0025505473    30.251704    984852.21  0.036391247    30.321791 
  456000   0.99420119 -0.0011055425    30.253764    984852.21  0.036391247    30.223385 
  458000    0.9903062 0.0038530673     30.25098    984852.21  0.036391247    30.356859 
  460000    1.0007912 0.0033496753    30.253987    984852.21  0.036391247    30.346033 
  462000   0.99919759 0.0015004366     30.25255    984852.21  0.036391247    30.293781 
  464000   0.99689809 0.0044699686    30.252911    984852.21  0.036391247    30.375742 
  466000    1.0026929 0.0024705927    30.256815    984852.21  0.036391247    30.324705 
  468000     1.002484 -0.00010574996     30.26041    984852.21  0.036391247    30.257504 
  470000   0.99675858 -0.0026434206    30.256263    984852.21  0.036391247    30.183625 
  472000    1.0026417 -0.0014347854    30.260253    984852.21  0.036391247    30.220826 
  474000   0.99787576 -0.00060054765    30.257666    984852.21  0.036391247    30.241163 
  476000    1.0031167 -0.0019195208    30.262874    984852.21  0.036391247    30.210127 
  478000   0.99818231 0.0021022861    30.264471    984852.21  0.036391247     30.32224 
  480000    1.0018198 0.00034142629    30.267379    984852.21  0.036391247    30.276761 
  482000    1.0079979 -0.0017554462    30.268345    984852.21  0.036391247    30.220107 
  484000    1.0049722 0.0013413898    30.260086    984852.21  0.036391247    30.296946 
  486000    1.0037215 0.0044813032    30.257887    984852.21  0.036391247    30.381029 
  488000    1.0041332 0.0044098018    30.257015    984852.21  0.036391247    30.378192 
  490000    1.0016922 0.0059183528    30.254001    984852.21  0.036391247    30.416633 
  492000    1.0005726  0.001598398    30.255534    984852.21  0.036391247    30.299457 
  494000   0.99826322 0.0045571278    30.255436    984852.21  0.036391247    30.380662 
  496000    1.0043905 0.0022031432    30.262663    984852.21  0.036391247    30.323203 
  498000   0.99819823 0.0016298816    30.260055    984852.21  0.036391247    30.304843 
  500000     1.004162 -0.0019097583    30.262066    984852.21  0.036391247    30.209587 
  502000    1.0010004 -0.0013191562    30.257795    984852.21  0.036391247    30.221546 
  504000    1.0007461 0.0034716968    30.255675    984852.21  0.036391247    30.351074 
  506000    1.0010828 0.0011619464    30.259347    984852.21  0.036391247    30.291277 
  508000    1.0021783 0.0037772521    30.258997    984852.21  0.036391247    30.362793 
  510000    1.0014415 -0.0027903197    30.257928    984852.21  0.036391247    30.181253 
  512000    1.0047093 0.0029879127     30.25708    984852.21  0.036391247    30.339185 
  514000   0.99822179 0.0031591942    30.254836    984852.21  0.036391247    30.341648 
  516000   0.99875647 0.0016469619    30.252052    984852.21  0.036391247    30.297309 
  518000     1.002538 0.0016140465    30.253917    984852.21  0.036391247     30.29827 
  520000    1.0012707 0.0035948133    30.252162    984852.21  0.036391247    30.350945 
  522000    1.0000544  -0.00240124    30.252142    984852.21  0.036391247    30.186158 
  524000    1.0009267 0.0055171632    30.252669    984852.21  0.036391247    30.404276 
  526000   0.99778439 -0.00048213151    30.253859    984852.21  0.036391247    30.240611 
  528000    1.0000189 -0.00010831054    30.253819    984852.21  0.036391247    30.250842 
  530000     1.004468 0.0014133717    30.263238    984852.21  0.036391247    30.302077 
  532000    1.0051401 0.00041425038    30.269285    984852.21  0.036391247    30.280668 
  534000    1.0044003 0.00069310242    30.267135    984852.21  0.036391247    30.286181 
  536000    1.0060168 -0.0033665123    30.271549    984852.21  0.036391247     30.17904 
  538000    1.0049985 0.0025802343    30.268056    984852.21  0.036391247    30.338958 
  540000     1.007198 -0.0026456113    30.266662    984852.21  0.036391247    30.193963 
  542000    1.0067779 0.0037573771    30.259121    984852.21  0.036391247    30.362371 
  544000   0.99954825 0.0039510114    30.258553    984852.21  0.036391247    30.367123 
  546000    1.0014094 0.0027980547    30.257601    984852.21  0.036391247    30.334489 
  548000    1.0032674 -0.0027559849    30.257665    984852.21  0.036391247    30.181933 
  550000    1.0055653 0.0045552066    30.264643    984852.21  0.036391247    30.389816 
  552000    1.0066093 0.0012854261    30.268565    984852.21  0.036391247    30.303887 
  554000    1.0052857 0.0042463849    30.263274    984852.21  0.036391247    30.379961 
  556000    1.0151624 0.0020129985    30.273431    984852.21  0.036391247    30.328747 
  558000    1.0106932 0.0030637282    30.267069    984852.21  0.036391247    30.351257 
  560000    1.0070027 -0.0024122626    30.265358    984852.21  0.036391247    30.199071 
  562000    1.0054862 -0.00037668747    30.251863    984852.21  0.036391247    30.241511 
  564000    1.0021359 0.0017344755     30.25209    984852.21  0.036391247    30.299752 
  566000     1.004811  0.002289242    30.252288    984852.21  0.036391247    30.315195 
  568000   0.99855369 0.0028510346    30.252759    984852.21  0.036391247    30.331103 
  570000    1.0038313 0.0046468537    30.255109    984852.21  0.036391247    30.382801 
  572000    1.0049902 -0.00040717971    30.258379    984852.21  0.036391247     30.24719 
  574000    1.0022129 -0.00018156189    30.246853    984852.21  0.036391247    30.241864 
  576000   0.99640523 0.0039834032    30.244384    984852.21  0.036391247    30.353844 
  578000    1.0037022 -0.0016775548    30.246421    984852.21  0.036391247    30.200323 
  580000   0.99902691 0.0054853895    30.245346    984852.21  0.036391247    30.396079 
  582000   0.99492635 0.0041108642    30.241329    984852.21  0.036391247    30.354292 
  584000   0.99922437 -0.0010581571    30.242647    984852.21  0.036391247     30.21357 
  586000    1.0026772 -0.00070552401    30.247389    984852.21  0.036391247    30.228002 
  588000   0.99652409 0.0005967798    30.245329    984852.21  0.036391247    30.261728 
  590000    1.0059519 0.0016701015    30.258251    984852.21  0.036391247    30.304144 
  592000    1.0016903 0.0063593381    30.251175    984852.21  0.036391247    30.425924 
  594000   0.99812569 0.00095958354    30.246619    984852.21  0.036391247    30.272988 
  596000   0.99690066  0.004401956    30.245044    984852.21  0.036391247    30.366006 
  598000    1.0002591 0.00068853706    30.248496    984852.21  0.036391247    30.267417 
  600000    1.0027373 -0.0014496412    30.252807    984852.21  0.036391247    30.212972 
  602000     0.998754 -0.00094549646    30.250103    984852.21  0.036391247    30.224122 
  604000   0.99697015 -0.0039878462    30.248949    984852.21  0.036391247    30.139366 
  606000    1.0049321 0.0044482539    30.254473    984852.21  0.036391247    30.376707 
  608000    1.0028019 0.00053570565    30.256809    984852.21  0.036391247     30.27153 
  610000    1.0030817 -0.0022169047    30.260811    984852.21  0.036391247    30.199893 
  612000    1.0038913 0.0014259172    30.261499    984852.21  0.036391247    30.300682 
  614000    1.0054512 -0.00094440912    30.259551    984852.21  0.036391247      30.2336 
  616000    1.0009396 -0.0014555692    30.252497    984852.21  0.036391247      30.2125 
  618000   0.99988198 0.0039690661    30.250558    984852.21  0.036391247    30.359625 
  620000    1.0001518 0.0020982704    30.251791    984852.21  0.036391247     30.30945 
  622000    1.0005644 -0.00061808183    30.251875    984852.21  0.036391247     30.23489 
  624000   0.99965185 0.00079037641    30.253147    984852.21  0.036391247    30.274866 
  626000    1.0016823 0.00063234299    30.250144    984852.21  0.036391247     30.26752 
  628000    1.0019563 -7.7088123e-05    30.253371    984852.21  0.036391247    30.251253 
  630000    0.9988688 0.0041994565    30.255846    984852.21  0.036391247    30.371243 
  632000    1.0034125 0.0017265848    30.255958    984852.21  0.036391247    30.303403 
  634000    1.0073436 0.0020629673    30.260835    984852.21  0.036391247    30.317524 
  636000    1.0054544 0.00075593577     30.26252    984852.21  0.036391247    30.283292 
  638000    1.0061003 0.00028146035    30.259956    984852.21  0.036391247     30.26769 
  640000    1.0070546 -0.00028285068     30.25952    984852.21  0.036391247    30.251747 
  642000    1.0038897 -0.0035708102    30.250461    984852.21  0.036391247    30.152338 
  644000    1.0067019 -0.0009731237    30.258944    984852.21  0.036391247    30.232203 
  646000    1.0103106 0.0010304906    30.254213    984852.21  0.036391247     30.28253 
  648000    1.0115171 -0.0019952932    30.262294    984852.21  0.036391247    30.207465 
  650000    1.0056313 0.0016668331    30.266837    984852.21  0.036391247     30.31264 
  652000    1.0093897 0.0018837497    30.261428    984852.21  0.036391247    30.313191 
  654000    1.0056343 -0.0015356394    30.260832    984852.21  0.036391247    30.218634 
  656000    1.0068646 -0.0034646718    30.261143    984852.21  0.036391247    30.165937 
  658000    1.0047263 0.0028446284    30.257215    984852.21  0.036391247    30.335383 
  660000    1.0037679 0.0046415566    30.250985    984852.21  0.036391247    30.378531 
  662000   0.99985284 -0.0026110636    30.252496    984852.21  0.036391247    30.180746 
  664000    1.0035201 0.0033226286    30.252587    984852.21  0.036391247     30.34389 
  666000   0.99813677 -0.00039494842    30.250928    984852.21  0.036391247    30.240075 
  668000    1.0065438 0.0014918699    30.251485    984852.21  0.036391247     30.29248 
  670000    1.0026071 0.00034691176    30.248858    984852.21  0.036391247    30.258391 
  672000    1.0028448 -0.004502052    30.251863    984852.21  0.036391247    30.128151 
  674000   0.99861682 -0.00022019704    30.247104    984852.21  0.036391247    30.241053 
  676000    1.0059359 -0.00093505953     30.25491    984852.21  0.036391247    30.229216 
  678000      1.00085 -0.0032740913     30.25348    984852.21  0.036391247    30.163511 
  680000    1.0009714 0.00036705863    30.264002    984852.21  0.036391247    30.274089 
  682000    1.0058616  0.008585899    30.255289    984852.21  0.036391247    30.491222 
  684000    1.0009378 -0.0011600418    30.256437    984852.21  0.036391247     30.22456 
  686000    1.0034304 -0.00085330868    30.256485    984852.21  0.036391247    30.233036 
  688000     1.004493 -0.0016955746    30.256293    984852.21  0.036391247    30.209701 
  690000     1.004163 0.00052882979    30.261887    984852.21  0.036391247    30.276418 
  692000    1.0033816 -0.0040099288    30.257242    984852.21  0.036391247    30.147053 
  694000    1.0086337 -0.0032827345    30.261509    984852.21  0.036391247    30.171302 
  696000    1.0082935 0.00097724424    30.261264    984852.21  0.036391247    30.288118 
  698000     1.006337 0.0041059294    30.258105    984852.21  0.036391247    30.370933 
  700000    1.0020227 -0.00054101934    30.249892    984852.21  0.036391247    30.235025 
  702000    1.0027864 0.0043088881    30.250256    984852.21  0.036391247     30.36866 
  704000    1.0000338 0.0027607076    30.245588    984852.21  0.036391247     30.32145 
  706000   0.99800741 -0.0020484895    30.246237    984852.21  0.036391247    30.189947 
  708000      1.00251 0.0018078943    30.243495    984852.21  0.036391247    30.293174 
  710000    1.0001055 -0.00043307847    30.248881    984852.21  0.036391247     30.23698 
  712000   0.99925558 0.0053581585    30.243829    984852.21  0.036391247    30.391066 
  714000    1.0036298 0.0016504649     30.24564    984852.21  0.036391247    30.290994 
  716000    1.0027849 0.0039250527     30.24556    984852.21  0.036391247    30.353417 
  718000   0.99841437 0.0036303367    30.243681    984852.21  0.036391247    30.343439 
  720000   0.99853057 0.0024619507    30.247732    984852.21  0.036391247    30.315384 
  722000   0.99910465 0.0031943753    30.241488    984852.21  0.036391247    30.329267 
  724000    1.0016926 0.00042428926    30.240341    984852.21  0.036391247       30.252 
  726000   0.99419621 -0.0012994329    30.241589    984852.21  0.036391247    30.205882 
  728000    1.0024147 -0.0019637765    30.242332    984852.21  0.036391247    30.188369 
  730000   0.99381873 0.0041424397    30.238415    984852.21  0.036391247    30.352245 
  732000   0.99927247 0.0043050639    30.238965    984852.21  0.036391247    30.357264 
  734000   0.99475716 0.0012858143    30.234471    984852.21  0.036391247    30.269804 
  736000   0.99840899 -0.0031272938    30.237504    984852.21  0.036391247    30.151569 
  738000    1.0033491 0.00095733154    30.233713    984852.21  0.036391247    30.260019 
  740000   0.99364412 0.0012317457    30.230597    984852.21  0.036391247    30.264444 
  742000    0.9955999 0.0005869594    30.229167    984852.21  0.036391247    30.245296 
  744000   0.99616866 0.0027717884    30.232202    984852.21  0.036391247    30.308368 
  746000   0.99499179 -0.0030553962    30.228231    984852.21  0.036391247    30.144271 
  748000   0.99618683 0.0023503226    30.234827    984852.21  0.036391247    30.299412 
  750000   0.99584268 -0.0055771272    30.242057    984852.21  0.036391247    30.088802 
  752000   0.99655437 -0.0014879363    30.239957    984852.21  0.036391247     30.19907 
  754000   0.99573395 0.0032385384    30.233546    984852.21  0.036391247    30.322538 
  756000    1.0000669 0.0015929013    30.238045    984852.21  0.036391247    30.281816 
  758000   0.99455662 0.00065439092    30.238728    984852.21  0.036391247     30.25671 
  760000   0.99716276  0.003959701    30.245189    984852.21  0.036391247    30.353998 
  762000   0.99964074 -0.0011411582    30.239968    984852.21  0.036391247     30.20861 
  764000   0.99601056 0.0050510004    30.236714    984852.21  0.036391247    30.375511 
  766000    1.0014381 -1.8586267e-05    30.244642    984852.21  0.036391247    30.244131 
  768000    1.0018235 0.0012528127    30.250181    984852.21  0.036391247    30.284607 
  770000    1.0056204 0.0024370226     30.25144    984852.21  0.036391247    30.318407 
  772000    1.0040274 0.00045244881    30.249132    984852.21  0.036391247    30.261565 
  774000   0.99916308 0.0041109735    30.248518    984852.21  0.036391247    30.361484 
  776000   0.99360931 0.00043892497    30.241761    984852.21  0.036391247    30.253822 
  778000   0.99786659 -0.0042675073    30.245685    984852.21  0.036391247    30.128418 
  780000    1.0001488 0.00038821179      30.2439    984852.21  0.036391247    30.254568 
  782000   0.99927794 -0.0019554806    30.240404    984852.21  0.036391247    30.186669 
  784000   0.99867282 -0.0071588932    30.241672    984852.21  0.036391247    30.044951 
  786000   0.99771793 0.00097615337    30.240987    984852.21  0.036391247    30.267811 
  788000     1.005153 0.0016326419    30.244344    984852.21  0.036391247    30.289207 
  790000   0.99956073 -0.00020013176    30.238028    984852.21  0.036391247    30.232528 
  792000    1.0013114 0.0051464081    30.240514    984852.21  0.036391247    30.381933 
  794000   0.99844174 -0.0003115737    30.240056    984852.21  0.036391247    30.231494 
  796000   0.99528207 0.0025935858     30.23242    984852.21  0.036391247     30.30369 
  798000   0.99729363 0.0025560007    30.240043    984852.21  0.036391247    30.310279 
  800000     1.008683 0.0040084192    30.247688    984852.21  0.036391247    30.357835 
  802000    1.0048707 -0.00010917159    30.242327    984852.21  0.036391247    30.239327 
  804000   0.99934333 -0.0024033455    30.240947    984852.21  0.036391247    30.174905 
  806000    1.0026898  0.001306266    30.243555    984852.21  0.036391247     30.27945 
  808000   0.99974159 0.00089118297    30.242656    984852.21  0.036391247    30.267144 
  810000   0.99447858 -0.00034548516    30.236434    984852.21  0.036391247     30.22694 
  812000    1.0016155 0.0041414157    30.243677    984852.21  0.036391247     30.35748 
  814000    1.0002833 0.00020513243    30.250068    984852.21  0.036391247    30.255705 
  816000    1.0034262 0.00040550659    30.247143    984852.21  0.036391247    30.258286 
  818000    1.0088175 0.0036282458    30.244719    984852.21  0.036391247     30.34442 
  820000    1.0014505  0.002546501    30.240413    984852.21  0.036391247    30.310389 
  822000   0.99741199 0.0014099905    30.241746    984852.21  0.036391247    30.280491 
  824000   0.99870951 0.00098515666    30.236181    984852.21  0.036391247    30.263252 
  826000   0.99756659 -0.0022095595    30.237633    984852.21  0.036391247    30.176916 
  828000    0.9953713 -0.0017552499    30.232406    984852.21  0.036391247    30.184173 
  830000   0.99643843 0.00092585789     30.22509    984852.21  0.036391247    30.250532 
  832000   0.99890229 -0.00050142748    30.229529    984852.21  0.036391247     30.21575 
  834000   0.99331078 0.0010303055    30.232576    984852.21  0.036391247    30.260888 
  836000    1.0008907 -0.0044326869    30.236272    984852.21  0.036391247    30.114466 
  838000    1.0056157 -0.0051803084    30.248598    984852.21  0.036391247    30.106247 
  840000    1.0025115 0.0053451773    30.244146    984852.21  0.036391247    30.391026 
  842000    1.0051792 -0.0026212345    30.247031    984852.21  0.036391247    30.175002 
  844000    1.0066808 0.00028439587     30.24912    984852.21  0.036391247    30.256935 
  846000    1.0087692  0.002025815    30.246713    984852.21  0.036391247     30.30238 
  848000    1.0002169 -0.00029687457    30.244672    984852.21  0.036391247    30.236514 
  850000     1.004177 0.0036247806    30.249596    984852.21  0.036391247    30.349202 
  852000    1.0056035 0.0037528682    30.251807    984852.21  0.036391247    30.354933 
  854000    1.0031008 0.0014478197    30.248284    984852.21  0.036391247    30.288068 
  856000    1.0029744 -0.0019954557    30.245957    984852.21  0.036391247    30.191123 
  858000    1.0041153 0.0007402049    30.249459    984852.21  0.036391247    30.269799 
  860000    1.0077458 0.0031433518    30.253486    984852.21  0.036391247    30.339862 
  862000    1.0024815  0.002192383    30.251415    984852.21  0.036391247    30.311659 
  864000   0.99797626 -0.0012747408     30.24831    984852.21  0.036391247    30.213282 
  866000    1.0024576 -0.0017207503    30.242165    984852.21  0.036391247     30.19488 
  868000    1.0021047 -0.00015868223    30.241058    984852.21  0.036391247    30.236697 
  870000    1.0008769 0.0029874428    30.239177    984852.21  0.036391247     30.32127 
  872000     1.001555 0.0051541529    30.240941    984852.21  0.036391247    30.382573 
  874000    1.0058038 -0.0037526526    30.244081    984852.21  0.036391247    30.140961 
  876000    1.0062994 0.0014420975    30.240011    984852.21  0.036391247    30.279639 
  878000    1.0009492 0.0028028885    30.244295    984852.21  0.036391247    30.321316 
  880000   0.99887683 -0.0016299076    30.239559    984852.21  0.036391247    30.194771 
  882000    1.0045678 0.00081031636    30.235264    984852.21  0.036391247    30.257531 
  884000      1.00486 0.0012556148    30.241923    984852.21  0.036391247    30.276426 
  886000   0.99484178 0.00016134017    30.232763    984852.21  0.036391247    30.237196 
  888000    1.0058758 0.0036467894    30.242269    984852.21  0.036391247    30.342479 
  890000    1.0003642 0.0010622906    30.236413    984852.21  0.036391247    30.265604 
  892000   0.99847094 -0.00022391945    30.236274    984852.21  0.036391247    30.230121 
  894000    1.0016353 -0.0027079145    30.234848    984852.21  0.036391247    30.160437 
  896000    1.0002109 -0.0027707463    30.234212    984852.21  0.036391247    30.158075 
  898000     0.999238  0.002103957    30.234978    984852.21  0.036391247    30.292793 
  900000    1.0015111 0.0028384571    30.233594    984852.21  0.036391247    30.311592 
  902000    1.0008189 -0.00038777177    30.235938    984852.21  0.036391247    30.225283 
  904000    1.0021335 -0.0012144203    30.238424    984852.21  0.036391247    30.205053 
  906000   0.99671335 -0.00030645594    30.237186    984852.21  0.036391247    30.228764 
  908000    1.0028701 0.00064614784    30.242597    984852.21  0.036391247    30.260352 
  910000    1.0053192 0.0022617418    30.238922    984852.21  0.036391247    30.301073 
  912000    1.0048081 -0.0011094258    30.248658    984852.21  0.036391247    30.218172 
  914000    1.0000141 -0.0043881361    30.239247    984852.21  0.036391247    30.118665 
  916000    1.0007219 -0.0013618176    30.242033    984852.21  0.036391247    30.204611 
  918000    1.0048652 0.00093336911    30.241659    984852.21  0.036391247    30.267307 
  920000   0.99927885 0.0028576862    30.242778    984852.21  0.036391247    30.321305 
  922000    1.0072266 0.00027327609     30.24527    984852.21  0.036391247     30.25278 
  924000    1.0036987 -0.0043960666     30.24888    984852.21  0.036391247     30.12808 
  926000    1.0060409 -0.0002583282    30.246156    984852.21  0.036391247    30.239058 
  928000    1.0053353 -0.001933997    30.250997    984852.21  0.036391247    30.197852 
  930000    1.0080348 0.0072083061    30.247619    984852.21  0.036391247    30.445697 
  932000    1.0023348  0.003855849     30.24827    984852.21  0.036391247    30.354225 
  934000    1.0079284 0.0016992991    30.243798    984852.21  0.036391247    30.290493 
  936000    1.0047641 0.0020920251    30.244256    984852.21  0.036391247    30.301743 
  938000    1.0029811  0.005264903    30.250131    984852.21  0.036391247    30.394806 
  940000     1.008382 -0.00052600333    30.251843    984852.21  0.036391247    30.237388 
  942000    1.0061537 0.00040895302    30.251793    984852.21  0.036391247    30.263031 
  944000    1.0037583 0.00068050547    30.248119    984852.21  0.036391247    30.266818 
  946000    1.0105541 0.0053074064    30.240983    984852.21  0.036391247    30.386826 
  948000    1.0040828 0.00095678065    30.242994    984852.21  0.036391247    30.269285 
  950000    1.0060135 0.0031265109    30.247724    984852.21  0.036391247    30.333637 
  952000    1.0072856 0.0047020306    30.249982    984852.21  0.036391247     30.37919 
  954000    1.0006809 -0.001560818    30.242801    984852.21  0.036391247    30.199912 
  956000     1.001328 -0.00028503472    30.241273    984852.21  0.036391247     30.23344 
  958000    1.0003912 0.0034423042    30.240307    984852.21  0.036391247    30.334898 
  960000   0.99954567 0.0009531244    30.241558    984852.21  0.036391247    30.267749 
  962000   0.99892915 0.00046246104    30.239613    984852.21  0.036391247    30.252321 
  964000   0.99876247 -0.0017352916    30.239594    984852.21  0.036391247    30.191909 
  966000    1.0008078 0.0045484637    30.240712    984852.21  0.036391247      30.3657 
  968000   0.99984722 0.0027205685     30.24117    984852.21  0.036391247    30.315929 
  970000    1.0014167 0.0016847803    30.237527    984852.21  0.036391247    30.283823 
  972000   0.99743426 0.0028707124    30.224085    984852.21  0.036391247     30.30297 
  974000    1.0009851 -0.0029380057    30.231245    984852.21  0.036391247    30.150511 
  976000   0.99908376 0.0013164844    30.230399    984852.21  0.036391247    30.266575 
  978000   0.99739821 0.0010023348    30.228615    984852.21  0.036391247    30.256158 
  980000   0.99956486 0.0032764351    30.219543    984852.21  0.036391247    30.309577 
  982000   0.99410797 -0.001946404     30.22552    984852.21  0.036391247    30.172034 
  984000   0.99705023 0.0021561045    30.221156    984852.21  0.036391247    30.280404 
  986000    0.9917228 -7.3788168e-05    30.218585    984852.21  0.036391247    30.216557 
  988000    1.0003701 0.0040913392     30.22415    984852.21  0.036391247    30.336577 
  990000    1.0025208 0.0015597825    30.230161    984852.21  0.036391247    30.273022 
  992000    1.0003297 0.0011426814    30.221025    984852.21  0.036391247    30.252425 
  994000   0.99975009  0.003462341    30.217691    984852.21  0.036391247    30.312833 
  996000    0.9979056 0.0040342782    30.222083    984852.21  0.036391247    30.332941 
  998000   0.99303033 3.8655476e-05    30.221941    984852.21  0.036391247    30.223003 
 1000000   0.99441517 0.0011895061    30.216525    984852.21  0.036391247    30.249212 
Loop time of 1391.14 on 32 procs for 1000000 steps with 35840 atoms

Performance: 310537.743 tau/day, 718.837 timesteps/s
99.9% CPU use with 32 MPI tasks x 1 OpenMP threads

MPI task timing breakdown:
Section |  min time  |  avg time  |  max time  |%varavg| %total
---------------------------------------------------------------
Pair    | 45.848     | 93.735     | 211.42     | 391.9 |  6.74
Bond    | 28.079     | 40.284     | 69.09      | 143.7 |  2.90
Neigh   | 145.04     | 145.44     | 145.82     |   1.7 | 10.45
Comm    | 212.29     | 327        | 415.68     | 296.9 | 23.51
Output  | 0.66309    | 0.66667    | 0.66883    |   0.2 |  0.05
Modify  | 730.72     | 771.81     | 851.72     | 107.1 | 55.48
Other   |            | 12.21      |            |       |  0.88

Nlocal:        1120.00 ave        1940 max         729 min
Histogram: 9 2 6 5 4 0 3 1 1 1
Nghost:        832.719 ave        1329 max         440 min
Histogram: 1 4 8 3 3 3 5 3 0 2
Neighs:        5845.34 ave       22804 max         659 min
Histogram: 16 3 3 3 1 0 4 1 0 1

Total # of neighbors = 187051
Ave neighs/atom = 5.2190569
Ave special neighs/atom = 2.3459821
Neighbor list builds = 71268
Dangerous builds = 0

fix 2 all press/berendsen iso 0.25 0.25 $(1000*dt*5)
fix 2 all press/berendsen iso 0.25 0.25 25
run 1000000
Per MPI rank memory allocation (min/avg/max) = 11.33 | 11.59 | 11.62 Mbytes
Step Temp Press TotEng Volume Density Enthalpy 
 1000000   0.99441517 -0.0053920737    30.216525    984852.21  0.036391247    30.068356 
 1002000   0.99174289 0.00087791395    30.211277     975085.3  0.036755759    30.235162 
 1004000   0.98769791 0.0028097768    30.202542    965421.39  0.037123686    30.278229 
 1006000   0.98788005 -0.0024578823     30.20594    955859.13  0.037495065    30.140388 
 1008000   0.98527505 0.00029362816    30.193363    946386.17  0.037870376    30.201117 
 1010000   0.98505006 0.0018261059    30.201123    937004.38  0.038249554    30.248865 
 1012000   0.97927663 0.0020773458    30.195604    927715.13  0.038632549    30.249375 
 1014000    0.9745575 8.6003538e-05     30.18304    918525.87  0.039019043    30.185244 
 1016000   0.97590466 0.0037013843    30.179866    909422.69  0.039409617    30.273787 
 1018000   0.97522853 0.0035933001    30.173251    900415.62  0.039803841    30.263526 
 1020000   0.97048756 -0.0036495839    30.166495    891496.82   0.04020205    30.075714 
 1022000   0.96821495 0.0032501537    30.166321    882667.55  0.040604189    30.246366 
 1024000   0.96419846 0.0011088625    30.161545     873927.6  0.041010262    30.188584 
 1026000   0.96920177 -0.0012620006    30.163753     865268.7  0.041420659    30.133285 
 1028000   0.96891204 0.0017751424    30.169018    856698.88  0.041835003     30.21145 
 1030000   0.96870885 -0.00076536842      30.1689     848211.9  0.042253592    30.150786 
 1032000   0.97232102 0.0040918403    30.167956    839807.68  0.042676437    30.263836 
 1034000   0.97330021 0.0017776336    30.166233    831493.48  0.043103164    30.207474 
 1036000   0.97059227 0.00010087349    30.164218    823256.44   0.04353443    30.166535 
 1038000   0.96403029 0.0031363793    30.161506    815109.07  0.043969576    30.232837 
 1040000   0.97103315 0.0063153255    30.170662    807036.31  0.044409402    30.312869 
 1042000   0.97578674 0.0042931861    30.175743    799049.01  0.044853319    30.271459 
 1044000   0.97470761 0.0033616354     30.17337    791135.18  0.045301993    30.247575 
 1046000   0.97157156 0.0051482873    30.170466     783303.4   0.04575494    30.282984 
 1048000   0.96931716 0.0048233551    30.168041     775552.4  0.046212222    30.272415 
 1050000   0.97067505 0.0034143149     30.16582    767876.16  0.046674193    30.238972 
 1052000   0.96899933 -0.0019251634    30.168426    760276.22  0.047140761    30.127588 
 1054000   0.96923489 -0.00097097417    30.174697    752753.18  0.047611888    30.154303 
 1056000   0.97130848 0.0020037263    30.164543    745308.71  0.048087456    30.206212 
 1058000   0.96786922 -0.0040858744    30.168415    737932.02   0.04856816    30.084288 
 1060000   0.96652418 0.0044499286    30.166183    730630.85  0.049053499    30.256899 
 1062000   0.97736573 0.0019484598    30.163506    723405.45  0.049543447    30.202834 
 1064000   0.96921635 7.9836773e-05    30.169669    716254.89  0.050038053    30.171265 
 1066000   0.96729014 -0.00037810489    30.163555    709170.18   0.05053794    30.156073 
 1068000   0.96960923 0.0060668914     30.16629    702157.06  0.051042712    30.285149 
 1070000   0.97428143 -0.0041612839    30.170486    695214.59  0.051552428    30.089767 
 1072000   0.96807842 0.0036310908    30.162246    688340.95  0.052067221    30.231984 
 1074000   0.96382556 -0.0035393086    30.159392    681536.66  0.052587046    30.092088 
 1076000   0.96132605 0.00083095951    30.153651    674800.97  0.053111956    30.169297 
 1078000   0.96310354 0.00029015961    30.149641    668130.09  0.053642248     30.15505 
 1080000    0.9662772 -0.00050998546    30.156435    661530.42  0.054177403    30.147022 
 1082000   0.96468598 0.0022176052    30.161937    654995.56  0.054717928    30.202465 
 1084000   0.96866491 -0.0022418613    30.155302    648520.04  0.055264291    30.114736 
 1086000   0.96996926 -0.002230331    30.160905    642116.45  0.055815421    30.120946 
 1088000   0.96776272 9.3327434e-05    30.161443    635775.11  0.056372134    30.163099 
 1090000   0.96895473   0.00189474    30.164323    629487.48  0.056935207    30.197602 
 1092000   0.97686076  0.005623336    30.167841     623272.7   0.05750292    30.265634 
 1094000    0.9734856 -0.0053792035    30.165181    617116.85  0.058076522    30.072558 
 1096000   0.97073589 -0.0054301569    30.153865    611020.67  0.058655953    30.061289 
 1098000   0.96660185 0.0074651657    30.155525    604984.13  0.059241224    30.281538 
 1100000   0.97216189 0.0064384127    30.158808    599008.63  0.059832193    30.266416 
 1102000   0.96820801 0.0056469023    30.149102    593097.92   0.06042847     30.24255 
 1104000   0.96636771 -0.0063113254    30.154744    587247.44  0.061030491    30.051331 
 1106000   0.96841405 -0.00069496645    30.150341    581451.45  0.061638852    30.139067 
 1108000   0.96952482 0.0076819259    30.160875    575717.34  0.062252771    30.284274 
 1110000   0.96542721 0.0011650787    30.156861    570040.67  0.062872707    30.175392 
 1112000   0.98029137 -0.00019304564    30.161332    564421.46  0.063498648    30.158292 
 1114000   0.97463329 0.0013884656      30.1569    558853.51  0.064131297    30.178551 
 1116000   0.97077913  -0.00454562    30.158381    553341.77  0.064770097      30.0882 
 1118000   0.96573435 0.0055584848     30.15064    547889.15  0.065414692    30.235613 
 1120000   0.96764758 0.0039064691    30.151191    542490.16  0.066065714    30.210321 
 1122000   0.97235364 0.0019712237    30.157432    537146.25  0.066722983    30.186976 
 1124000    0.9736553 -0.0013042087     30.15758    531853.22  0.067387013    30.138226 
 1126000   0.96873188 0.0059044495    30.166157    526617.07  0.068057042    30.252914 
 1128000   0.97835825 -0.0017843416    30.163739     521433.3  0.068733623    30.137778 
 1130000   0.97395394 0.0084640574    30.169558    516295.96  0.069417549    30.291488 
 1132000   0.98127887 0.0036608478    30.172491    511220.69  0.070106708    30.224709 
 1134000   0.97476147 -0.0033479162    30.170846    506186.07  0.070804003    30.123562 
 1136000   0.97741971 0.0035395759    30.164084     501208.8  0.071507124    30.213584 
 1138000   0.97292654 -0.00066014976    30.165395     496278.5  0.072217516    30.156253 
 1140000   0.96938622 0.00036800627    30.159431    491397.46  0.072934849    30.164477 
 1142000   0.97013443 0.0016243995    30.157451    486561.38  0.073659772    30.179504 
 1144000   0.96789648   0.00786863    30.156951    481779.66  0.074390853    30.262725 
 1146000   0.97028463 -0.00065389247    30.156861    477046.25  0.075128984    30.148158 
 1148000   0.97215578 0.0078489786    30.151983    472357.39  0.075874753     30.25543 
 1150000   0.97143563 0.0032769536    30.156838     467721.4  0.076626813    30.199603 
 1152000   0.96883244 0.0034188481    30.155954    463127.55  0.077386889    30.200133 
 1154000   0.97225009 -0.00043798379      30.1643    458580.79  0.078154168    30.158696 
 1156000   0.96846482 0.0044560684    30.157009    454077.69  0.078929225    30.213465 
 1158000    0.9680621 0.00064023154    30.154093    449620.87  0.079711603    30.162125 
 1160000   0.96982256 0.0082116187    30.149227    445209.03  0.080501511    30.251233 
 1162000   0.96770864 -0.0040748488    30.149203    440844.94  0.081298426    30.099081 
 1164000   0.96750454 -0.00090419845    30.152325     436521.9  0.082103554    30.141312 
 1166000   0.96992341 0.0048582806    30.151112    432242.29  0.082916459    30.209704 
 1168000   0.96142497 0.0080672769    30.148398    427997.55  0.083738798    30.244736 
 1170000   0.96299896 0.0054886389    30.144472    423806.97  0.084566802    30.209375 
 1172000   0.96326321 0.0079866696    30.147102    419655.84  0.085403315    30.240619 
 1174000   0.96693861 0.00065455988    30.141953    415547.55  0.086247651    30.149543 
 1176000   0.96745166 -0.0035268863    30.143221    411479.43  0.087100344    30.102728 
 1178000   0.96492641 -0.0039571125    30.137506    407452.28  0.087961221    30.092519 
 1180000   0.96467677 0.0085902394    30.134208    403463.68  0.088830796    30.230911 
 1182000   0.96636466 0.0035927335    30.141789    399514.12   0.08970897    30.181837 
 1184000   0.96403619 0.00011940471    30.136873    395611.22  0.090593992    30.138191 
 1186000    0.9630347 -0.0033204656    30.136405    391742.11   0.09148876    30.100112 
 1188000   0.96609141 -0.0022903504    30.139018    387909.66  0.092392646    30.114229 
 1190000   0.96577406 -0.0032374626    30.138248    384122.97  0.093303454     30.10355 
 1192000   0.96993617 -0.0037859545     30.14098     380368.6  0.094224391      30.1008 
 1194000   0.96869472 0.0069028997    30.146066    376652.23  0.095154089    30.218611 
 1196000   0.97432482  0.010151464    30.150435    372979.14  0.096091165    30.256079 
 1198000   0.97434977 -0.0016115188    30.151769    369346.71  0.097036197    30.135162 
 1200000   0.97388356 0.0083839308    30.158589    365737.79  0.097993701    30.244145 
 1202000   0.97296465 0.0045088334    30.150611    362172.59  0.098958344    30.196174 
 1204000   0.97362992 0.0091181403    30.158448    358640.67  0.099932894    30.249691 
 1206000   0.97353559  0.010360309     30.15809    355149.91   0.10091513    30.260753 
 1208000   0.97151098  0.014327594    30.155865    351696.52   0.10190604    30.296461 
 1210000   0.96841336 0.0053196907    30.151856    348276.05   0.10290688     30.20355 
 1212000   0.97242054  0.022193849    30.142444    344887.05   0.10391808    30.356015 
 1214000   0.96869696 0.0095216543    30.146676    341536.82   0.10493744    30.237412 
 1216000   0.96632851 0.0038270162     30.14883    338221.71     0.105966    30.184946 
 1218000   0.97825199 -0.0033118511    30.158597    334939.75   0.10700432    30.127646 
 1220000   0.97182802 0.0013779331    30.158062     331688.3   0.10805325    30.170815 
 1222000   0.97427701 -0.002664924    30.162879    328466.63   0.10911306    30.138456 
 1224000   0.97242407  0.020737838    30.165401    325282.02   0.11018131    30.353616 
 1226000   0.97239037 0.0067273457    30.152991    322136.15   0.11125731    30.213458 
 1228000   0.96635138  0.011147478    30.147321     319008.5    0.1123481    30.246544 
 1230000   0.96690973  0.012511659    30.144804    315924.53   0.11344482    30.255092 
 1232000   0.97383013  0.015576936    30.147119     312868.6   0.11455288    30.283099 
 1234000   0.97100175  0.010072361    30.148289    309846.98      0.11567    30.235368 
 1236000   0.96819372  0.010790585    30.143927    306854.52   0.11679802    30.236314 
 1238000   0.97179102  0.011267509     30.14769    303893.47   0.11793606    30.243229 
 1240000   0.97247042  0.014977853     30.15074     300965.2   0.11908354    30.276516 
 1242000   0.97682412  0.021952846    30.149927     298064.4   0.12024247    30.332499 
 1244000   0.96980039 0.0011837578    30.146981    295196.08   0.12141083    30.156731 
 1246000    0.9697525 -0.0061511404    30.152968    292351.08   0.12259233    30.102793 
 1248000   0.96971496  0.015888171    30.144654    289532.45   0.12378578    30.273006 
 1250000   0.96791134  0.011577092    30.145074    286748.72   0.12498748      30.2377 
 1252000   0.96995761 0.0056096064     30.13946    283988.56   0.12620227    30.183909 
 1254000   0.97002797 -0.00011679118    30.136796    281260.52   0.12742634    30.135879 
 1256000   0.96925498 0.0099227241    30.137853    278563.52   0.12866006    30.214976 
 1258000   0.97391222 0.0024362693    30.141165    275896.52   0.12990378     30.15992 
 1260000    0.9675361 0.00071717977     30.13132    273257.73   0.13115823    30.136788 
 1262000   0.97527141 0.0046460986    30.133215    270644.18    0.1324248      30.1683 
 1264000   0.96623479 0.0069697817    30.131544    268054.85   0.13370398    30.183673 
 1266000   0.97002301 0.0019860544     30.12957     265494.6   0.13499333    30.144282 
 1268000   0.96617009 0.0081181985    30.131726    262961.95   0.13629348     30.19129 
 1270000   0.96164076  0.016460028    30.124722    260453.47   0.13760615    30.244339 
 1272000   0.96758513  0.027598546    30.134034    257966.96   0.13893252    30.332681 
 1274000   0.96505588 0.0079062216    30.128065    255509.18   0.14026893     30.18443 
 1276000   0.97145788  0.024330727     30.13753    253079.97   0.14161532    30.309339 
 1278000   0.97109511 -3.2409211e-06    30.139471    250679.06   0.14297166    30.139449 
 1280000   0.97402876  0.013183077      30.1368    248299.64   0.14434173    30.228132 
 1282000   0.97108701  0.024183069     30.13285    245946.13   0.14572297    30.298802 
 1284000   0.96618166 0.0037037382     30.12783    243621.45   0.14711348    30.153006 
 1286000   0.96859489  0.013994273    30.134124    241316.39   0.14851871    30.228349 
 1288000   0.96953636 -0.0072496927    30.135035    239033.22   0.14993732    30.086683 
 1290000   0.97014562  0.033315834    30.126895    236778.07   0.15136537    30.346997 
 1292000   0.96980592  0.021543615    30.128688    234547.32   0.15280499    30.269675 
 1294000   0.96784346  0.024640195    30.132204    232332.36   0.15426176    30.291934 
 1296000   0.96887551  0.014293393     30.14199    230148.46   0.15572557    30.233776 
 1298000   0.97355604 -0.0014349953    30.145138    227991.77   0.15719865    30.136009 
 1300000   0.97404871  0.022319571    30.138689    225852.32   0.15868777     30.27934 
 1302000   0.97001006  0.016316059    30.137803    223735.97   0.16018882    30.239658 
 1304000   0.97358468  0.016955149    30.135799    221640.47   0.16170332    30.240652 
 1306000   0.97522261    0.0159118    30.139145    219568.36   0.16322934    30.236627 
 1308000   0.97130056  0.013739666    30.138709    217517.18   0.16476859    30.222097 
 1310000   0.97072661  0.011416571    30.136586    215490.78   0.16631802    30.205229 
 1312000   0.97325279 0.0078611855    30.138382    213486.92   0.16787914    30.185208 
 1314000   0.97536155 0.0050728053    30.151692    211504.44   0.16945271    30.181629 
 1316000   0.98210159  0.022726605    30.150078    209544.35   0.17103778    30.282953 
 1318000   0.98029119  0.016816061    30.146436    207602.81   0.17263736    30.243843 
 1320000   0.97918819 0.0074583889     30.14814    205684.79   0.17424721    30.190944 
 1322000    0.9759847   0.02631842     30.13786    203790.33   0.17586703     30.28751 
 1324000   0.97510535 0.0069316507    30.136173    201914.48   0.17750089    30.175224 
 1326000   0.97506965  0.010402943    30.134496    200062.75    0.1791438    30.192566 
 1328000   0.97752975  0.028284314    30.132129    198228.91   0.18080107    30.288568 
 1330000   0.98193283   0.01009423    30.137382    196414.89   0.18247089    30.192701 
 1332000   0.97204684  0.036982174    30.132607    194621.92   0.18415192    30.333431 
 1334000   0.97426138  0.018907772    30.123351     192845.1   0.18584864    30.225089 
 1336000   0.97376111  0.013368944    30.134569    191091.06   0.18755457    30.205849 
 1338000   0.97320591  0.016189695    30.130128    189354.35   0.18927476    30.215663 
 1340000   0.97553783 0.0096099012    30.133449    187639.04   0.19100502    30.183761 
 1342000     0.974347  0.037228387    30.135665    185939.71   0.19275065    30.328808 
 1344000   0.97994702  0.033219111    30.127935    184265.02   0.19450246    30.298726 
 1346000   0.97410625  0.016212273    30.127214     182607.7   0.19626774    30.209817 
 1348000   0.97528388  0.022713085    30.132208    180967.15   0.19804699    30.246894 
 1350000   0.97818663  0.021053845    30.132307    179346.74   0.19983636    30.237662 
 1352000   0.97791714  0.045444546    30.135673    177753.42   0.20162763    30.361062 
 1354000   0.97841238  0.035620977    30.134186    176177.18   0.20343157    30.309287 
 1356000   0.98017742  0.017434041    30.134616    174608.62   0.20525905    30.219553 
 1358000   0.97903767  0.029048888    30.143437    173066.65   0.20708785     30.28371 
 1360000   0.98413085  0.046059965    30.139691    171545.72    0.2089239    30.360154 
 1362000   0.98303051 0.0046851426    30.140817    170037.82   0.21077664    30.163045 
 1364000   0.98596775  0.038327752    30.147653    168550.52   0.21263655    30.327903 
 1366000    0.9846027   0.04508027    30.144492    167077.11   0.21451173    30.354644 
 1368000    0.9887303  0.039546561     30.14862     165621.9   0.21639651    30.331371 
 1370000   0.98620211  0.032182444    30.141815    164184.85   0.21829055    30.289244 
 1372000   0.98545087  0.036370247    30.147858    162767.88   0.22019087    30.313034 
 1374000   0.98391491  0.032131155    30.141459    161370.83   0.22209714     30.28613 
 1376000    0.9838362  0.041868031    30.142416    159983.93    0.2240225    30.329308 
 1378000   0.99052497  0.027930166    30.144533    158615.85   0.22595472    30.268143 
 1380000   0.98651311   0.03696242    30.144537    157264.51   0.22789631    30.306727 
 1382000    0.9893721  0.046905212    30.144882    155929.98   0.22984676    30.348954 
 1384000   0.98237984  0.049537003    30.132476    154613.12   0.23180439    30.346178 
 1386000   0.98310691  0.041492162    30.139078     153314.8   0.23376738    30.316572 
 1388000   0.98831188  0.034701028    30.127177    152028.32   0.23574555    30.274374 
 1390000   0.98529707  0.042585972    30.135458    150760.78   0.23772761    30.314595 
 1392000   0.98107468  0.075318647    30.133607    149507.99   0.23971962    30.447802 
 1394000   0.98222374  0.056624371    30.134453    148265.18   0.24172905      30.3687 
 1396000    0.9845105   0.04406559    30.122784    147037.81   0.24374683    30.303568 
 1398000   0.97782134  0.055777378    30.122904    145834.27   0.24575842    30.349864 
 1400000   0.98186844  0.040364966    30.133561    144646.02    0.2477773    30.296469 
 1402000   0.97988828  0.031219156    30.129137    143473.62   0.24980202    30.254113 
 1404000   0.98235249  0.056736116    30.124739    142315.11   0.25183552    30.350029 
 1406000   0.97906555 0.0099198512    30.121498    141170.08   0.25387815    30.160571 
 1408000   0.97984553  0.083516951    30.114234    140040.46   0.25592603    30.440566 
 1410000   0.97518375  0.024684359    30.110297    138925.26   0.25798044     30.20598 
 1412000   0.97588909     0.045553    30.113147    137823.83   0.26004212    30.288322 
 1414000   0.97601984  0.062861302    30.115823    136742.98   0.26209756    30.355662 
 1416000    0.9825517  0.043337868    30.117477    135669.22   0.26417194    30.281529 
 1418000   0.98425738  0.073153789    30.117375    134612.04   0.26624662    30.392135 
 1420000   0.98018587  0.048106031    30.117021    133572.21   0.26831928    30.296307 
 1422000    0.9813916  0.087569465    30.113113    132552.81    0.2703828    30.436985 
 1424000   0.97975469  0.052212999    30.112304    131541.67   0.27246119    30.303938 
 1426000   0.97674291   0.06839692    30.116268    130541.42   0.27454887    30.365393 
 1428000   0.98068511  0.053878354    30.122438    129562.39   0.27662348     30.31721 
 1430000   0.98711482  0.057180878    30.122545     128599.9   0.27869383     30.32772 
 1432000    0.9877523  0.040837321    30.128531    127647.61   0.28077298    30.273977 
 1434000   0.98974129  0.041550868    30.124877    126709.47   0.28285178    30.271777 
 1436000   0.98370303   0.10976895    30.122176    125787.91   0.28492404    30.507433 
 1438000    0.9899934  0.075843005    30.119419    124877.38   0.28700154    30.383679 
 1440000   0.98398377  0.094107724    30.119007    123986.04   0.28906479    30.444567 
 1442000   0.98238367  0.065898468    30.116889    123100.82   0.29114348    30.343233 
 1444000   0.98563452  0.099563531     30.12089    122233.57   0.29320913    30.460455 
 1446000   0.98429288   0.08805285     30.12069    121376.26   0.29528015    30.418892 
 1448000   0.98981429   0.10363588    30.123416     120538.5   0.29733239    30.471968 
 1450000   0.98857857  0.082770917    30.113546    119705.45   0.29940157    30.390001 
 1452000   0.98896001   0.06617922    30.118308    118893.09   0.30144729    30.337846 
 1454000   0.98761085   0.12105124    30.114952    118094.01   0.30348702     30.51382 
 1456000   0.98906296   0.05693223    30.113532    117307.49   0.30552183    30.299876 
 1458000   0.98632863  0.085683405    30.117995    116529.84    0.3075607    30.396585 
 1460000    0.9885974  0.084704773     30.11521     115765.5   0.30959136    30.388812 
 1462000   0.98918878  0.084048642    30.119156    115016.75    0.3116068    30.388882 
 1464000   0.99312829  0.088616645    30.117733    114273.57   0.31363334    30.400282 
 1466000   0.98803285  0.082488543    30.107365    113544.39   0.31564748    30.368697 
 1468000   0.98794926  0.081932592    30.105335    112831.74   0.31764113    30.363276 
 1470000   0.98580875   0.08172534    30.100129    112134.33   0.31961666    30.355827 
 1472000   0.98066076   0.11384761    30.099309    111444.46   0.32159518    30.453319 
 1474000   0.98982784     0.116772    30.102856    110761.82   0.32357721    30.463734 
 1476000   0.98920626   0.10172482    30.098629    110097.98   0.32552822    30.411121 
 1478000    0.9884222   0.11800511    30.100239    109440.25   0.32748462    30.460577 
 1480000   0.98506454  0.099900872    30.097459    108795.09   0.32942664    30.400715 
 1482000   0.98317714  0.096853007    30.104139    108164.88   0.33134599    30.396441 
 1484000   0.98577707  0.098059935     30.09707    107545.74   0.33325355     30.39132 
 1486000   0.98954469   0.13235534    30.099388    106935.18   0.33515631    30.494294 
 1488000   0.98776037   0.14229974    30.096154    106341.81   0.33702643    30.518375 
 1490000   0.98618973   0.12262112    30.093195    105751.15   0.33890884    30.455006 
 1492000   0.98217557   0.11623806    30.092046    105173.47   0.34077035     30.43315 
 1494000   0.98420609    0.1060486    30.090443    104613.88   0.34259315     30.39999 
 1496000   0.98611249   0.13860053    30.096894    104059.49   0.34441838    30.499313 
 1498000   0.98729837   0.12812724    30.093454    103520.37   0.34621207    30.463537 
 1500000   0.98806214   0.13061529    30.091602    102987.42   0.34800368    30.466929 
 1502000   0.99039868    0.1472471    30.099679    102469.14   0.34976384    30.520669 
 1504000   0.99428746   0.09196142    30.100889    101960.79   0.35150766    30.362509 
 1506000   0.99172538   0.11147777    30.100955    101471.24   0.35320354    30.416574 
 1508000    0.9878287   0.12498819    30.096948    100994.94   0.35486926    30.449157 
 1510000   0.99142922   0.15225697    30.102478    100518.58   0.35655098    30.529505 
 1512000   0.99058056   0.13618169    30.095373    100048.39   0.35822664    30.475528 
 1514000   0.98969287   0.15559956    30.095647    99592.477   0.35986654    30.528028 
 1516000   0.99211283   0.14474983    30.096938    99142.813   0.36149872    30.497354 
 1518000   0.99212965   0.14277393    30.098322    98706.926   0.36309509    30.491536 
 1520000   0.99778582   0.11971304    30.105283    98282.666   0.36466247    30.433567 
 1522000   0.99651865   0.13745632    30.104836     97875.04    0.3661812    30.480214 
 1524000   0.99694285   0.19858129    30.095945    97472.906   0.36769192     30.63602 
 1526000   0.99353739   0.18573548    30.106086    97075.481   0.36919724    30.609165 
 1528000   0.99776067   0.15530087    30.104726    96689.671   0.37067041    30.523699 
 1530000   0.99769267    0.1405223    30.101586    96310.118    0.3721312    30.479201 
 1532000   0.98895594   0.17224997    30.095941    95933.604   0.37359172    30.557006 
 1534000   0.99661358   0.15104223     30.10079    95578.358   0.37498029     30.50359 
 1536000   0.99618253   0.11129666    30.097623      95224.9   0.37637215    30.393332 
 1538000   0.99434123   0.12442697    30.096674     94880.95   0.37773652    30.426076 
 1540000   0.99160546    0.1296967    30.086831    94543.517   0.37908469    30.428963 
 1542000   0.99188801    0.1573269     30.08034     94205.26   0.38044585    30.493873 
 1544000   0.99286603   0.19553139    30.080819    93881.326   0.38175856    30.593005 
 1546000   0.99319748   0.16691431     30.08075    93571.098   0.38302425     30.51653 
 1548000   0.99164715   0.11618454    30.083175    93264.456   0.38428359    30.385516 
 1550000   0.99513115   0.19979316    30.090042    92965.527   0.38551925    30.608286 
 1552000   0.99550858   0.19051533    30.084131    92676.391   0.38672201    30.576773 
 1554000   0.99534005   0.12793087    30.082176    92396.563   0.38789322    30.411985 
 1556000   0.99146284   0.18893372    30.075496    92124.442   0.38903899    30.561138 
 1558000   0.99254134   0.13794813    30.079256    91852.186   0.39019213    30.432795 
 1560000   0.99848437   0.19316632    30.079069    91585.618   0.39132782    30.572686 
 1562000   0.99255485   0.18969454    30.076368    91324.762   0.39244559    30.559733 
 1564000   0.99597959   0.16357105    30.078486    91078.223    0.3935079     30.49416 
 1566000   0.99247888   0.17592032    30.067342    90837.568   0.39455041    30.513217 
 1568000   0.99178686   0.16750287    30.068956    90606.109   0.39555832    30.492415 
 1570000   0.99275648     0.154424    30.073016    90375.459   0.39656783    30.462417 
 1572000   0.99553932    0.1791594    30.073806    90153.352   0.39754484    30.524471 
 1574000   0.99354067   0.19165926    30.068685    89938.117   0.39849622    30.549641 
 1576000   0.98855359   0.19078737    30.069108    89728.601   0.39942671    30.546761 
 1578000    0.9928485   0.15933599    30.066821    89519.477    0.4003598    30.464802 
 1580000    0.9905526   0.17208417    30.067543    89316.575   0.40126931    30.496393 
 1582000   0.99102485   0.19330706    30.066115    89120.508   0.40215211    30.546797 
 1584000   0.98590064   0.19613304    30.065361    88938.168   0.40297659    30.552072 
 1586000   0.99738793   0.18635893    30.072547    88756.513   0.40380135    30.534058 
 1588000   0.99410707   0.22328826    30.063531     88583.44   0.40459029    30.615418 
 1590000   0.99501344   0.18318462    30.065365    88399.882    0.4054304    30.517192 
 1592000   0.99210471   0.18720683    30.071534    88234.227   0.40619158    30.532417 
 1594000   0.98934455   0.16530759    30.066065    88067.898   0.40695873    30.472267 
 1596000   0.99572097   0.26403352    30.074419    87909.681   0.40769116     30.72205 
 1598000   0.99938064   0.18787499     30.07509    87756.795   0.40840142    30.535115 
 1600000   0.99018112    0.2007761    30.064468    87604.526   0.40911128    30.555229 
 1602000   0.99219121   0.19131196    30.069457    87449.207   0.40983791    30.536256 
 1604000    0.9947029   0.17754506    30.068684    87300.434   0.41053633    30.501155 
 1606000   0.99713986   0.23762806     30.07132     87157.24   0.41121082    30.649194 
 1608000   0.99825662   0.23718181    30.068418    87024.957   0.41183588    30.644332 
 1610000   0.99877579   0.21804292    30.073071    86898.372    0.4124358    30.601742 
 1612000   0.99778801    0.2399519     30.06988    86771.666   0.41303805    30.650824 
 1614000     0.997714   0.21015219    30.075456    86653.189   0.41360278    30.583557 
 1616000   0.99485284   0.17275478    30.072147    86527.314   0.41420447    30.489223 
 1618000   0.99424613   0.21750862    30.073155    86405.856    0.4147867    30.597542 
 1620000   0.99976175   0.22661771    30.073209    86299.025   0.41530017    30.618881 
 1622000    1.0009123   0.22243605    30.075498    86193.032   0.41581087    30.610443 
 1624000    1.0043306   0.28541448    30.072767    86097.181   0.41627379    30.758408 
 1626000    1.0016698   0.18257438    30.085055    86001.956   0.41673471    30.523162 
 1628000    1.0044451   0.26323801    30.081589    85912.282   0.41716969    30.712599 
 1630000    1.0049646   0.21509899    30.079389    85815.051   0.41764235    30.594421 
 1632000    1.0012405   0.22525864    30.075855    85727.936   0.41806675    30.614665 
 1634000     1.000619   0.23228121    30.075431    85635.995    0.4185156    30.630443 
 1636000    1.0042337   0.25406625    30.071002     85554.12   0.41891612    30.677486 
 1638000   0.99352704   0.22718312    30.056807    85477.601   0.41929113    30.598634 
 1640000   0.99998423   0.28689546    30.059424    85391.766    0.4197126    30.742976 
 1642000    0.9940271   0.25745124    30.056167    85307.184   0.42012874    30.668958 
 1644000   0.99912188   0.23955188    30.066015    85229.993   0.42050924    30.635686 
 1646000   0.99002145   0.19635929    30.063424    85151.928   0.42089475    30.529952 
 1648000   0.99933974   0.21066409    30.065486    85081.807   0.42124164    30.565589 
 1650000   0.99686605   0.23888529    30.069137    85012.673    0.4215842    30.635774 
 1652000   0.99856817   0.19465256    30.080342    84945.339   0.42191838    30.541693 
 1654000    1.0014325   0.20526908    30.076759    84883.231   0.42222709    30.562917 
 1656000    1.0013518   0.21595096    30.079202    84814.353   0.42256999    30.590244 
 1658000   0.99488186    0.2483723    30.072398    84757.167   0.42285509    30.659767 
 1660000   0.99328187   0.21189097    30.068814    84697.351   0.42315373    30.569556 
 1662000   0.99961618   0.17966335    30.078802    84637.369   0.42345362    30.503083 
 1664000    1.0025089   0.27548803    30.072671    84579.528    0.4237432      30.7228 
 1666000    1.0030513      0.25426    30.074188    84530.338   0.42398979    30.673872 
 1668000    1.0002039   0.16341684    30.072332    84477.279   0.42425609    30.457516 
 1670000   0.99381062   0.21586231    30.072169    84430.861   0.42448933    30.580692 
 1672000    1.0065512   0.22648529    30.065694    84380.613   0.42474211    30.598924 
 1674000   0.99710722   0.23251196    30.067849    84335.041   0.42497163    30.614972 
 1676000     1.002295   0.24732895    30.071959        84295    0.4251735    30.653672 
 1678000   0.99793987   0.24190969    30.072698    84252.134   0.42538982    30.641376 
 1680000   0.99717285   0.24816512     30.07273    84211.477    0.4255952    30.655831 
 1682000   0.99582505   0.23721648    30.068145    84167.509   0.42581752    30.625229 
 1684000    1.0009772   0.20672877    30.066122    84135.258   0.42598074    30.551423 
 1686000   0.99856934   0.20229966    30.064038     84095.89   0.42618016    30.538719 
 1688000   0.99140331   0.21181994    30.064154    84056.503   0.42637986    30.560941 
 1690000   0.99467472   0.20696137    30.059428    84016.014   0.42658534    30.544586 
 1692000   0.99521747   0.24893462     30.05759    83975.107   0.42679314    30.640858 
 1694000   0.99458008   0.27804292    30.051219    83934.709   0.42699856    30.702376 
 1696000   0.99528129   0.22819765    30.060505    83903.766   0.42715604     30.59473 
 1698000    1.0011853    0.2484372    30.062352    83880.438   0.42727483    30.643798 
 1700000   0.99794924   0.20920818    30.058367    83847.207   0.42744417    30.547807 
 1702000   0.99871108   0.21414032    30.065836    83814.872   0.42760908    30.566622 
 1704000   0.99541351   0.22925519    30.066836    83777.345   0.42780062    30.602729 
 1706000   0.99511663   0.24884262    30.063738    83750.633   0.42793706    30.645231 
 1708000     1.003732   0.23605105    30.072023    83726.012   0.42806291    30.623463 
 1710000    1.0043786   0.19664933    30.076289     83699.33   0.42819937    30.535537 
 1712000    1.0008048   0.28668401    30.066312    83667.383   0.42836287    30.735567 
 1714000    1.0009483   0.28272089    30.063849    83638.457   0.42851101    30.723624 
 1716000   0.99912306   0.24699326    30.066345    83619.446   0.42860844    30.642613 
 1718000    1.0011719      0.30549    30.068204    83599.188    0.4287123    30.780779 
 1720000    1.0014779   0.21167271    30.065371    83576.318   0.42882961    30.558977 
 1722000   0.99228118   0.25949927    30.055744    83556.553   0.42893105    30.660735 
 1724000   0.99359856   0.25208425     30.05428    83536.759   0.42903269    30.641844 
 1726000   0.99882898   0.22745197    30.056528    83502.051   0.42921102    30.586458 
 1728000   0.99266588   0.21467652    30.060196    83483.831   0.42930469    30.560253 
 1730000   0.99376672   0.28847528    30.052688    83467.486   0.42938875    30.724516 
 1732000   0.99142371    0.2540496    30.049886    83440.192   0.42952921    30.641346 
 1734000    1.0057363   0.23474328    30.062621    83419.761   0.42963441       30.609 
 1736000   0.99621822   0.23846071    30.059014    83403.105   0.42972021    30.613934 
 1738000   0.99732215   0.25679656    30.052485    83374.133   0.42986954    30.649867 
 1740000   0.99930227   0.24290811     30.05437    83355.374   0.42996628    30.619317 
 1742000   0.99395348   0.29768591    30.052662    83339.205    0.4300497    30.744875 
 1744000   0.99276645   0.24107349     30.05461    83329.704   0.43009873    30.615118 
 1746000    1.0005611   0.23969512    30.058767    83314.734   0.43017601    30.615969 
 1748000   0.99739313   0.23147394    30.062617    83298.968   0.43025743    30.600606 
 1750000    0.9930327   0.23570485    30.050603    83277.325   0.43036925    30.598283 
 1752000   0.99156381    0.2150978    30.057552    83258.039   0.43046894    30.557235 
 1754000   0.99563331   0.25796368    30.054349    83249.122   0.43051505    30.653547 
 1756000   0.99326974   0.24281176    30.057099    83234.986   0.43058817    30.621007 
 1758000   0.99249378   0.21888654    30.050638    83216.366   0.43068451    30.558868 
 1760000   0.99761662   0.26443378    30.054547    83210.033   0.43071729    30.668485 
 1762000   0.99585806   0.19682029    30.063994    83194.758   0.43079637    30.520869 
 1764000   0.99729624   0.24002604    30.058065    83185.346   0.43084512     30.61517 
 1766000   0.99704244   0.22531392    30.054167    83171.441   0.43091714    30.577038 
 1768000    0.9969638   0.22849274    30.054097    83165.987    0.4309454    30.584309 
 1770000   0.99081441   0.22273646    30.059934    83159.929    0.4309768    30.576752 
 1772000    0.9896245   0.19239767     30.05608    83153.925   0.43100791     30.50247 
 1774000   0.99248103   0.30230939    30.059652    83147.628   0.43104056       30.761 
 1776000   0.99655876   0.24416399    30.065682    83138.813   0.43108626    30.632074 
 1778000   0.99605137    0.2757967    30.068227    83138.516    0.4310878    30.707996 
 1780000     1.004256   0.23788155    30.066343    83132.459   0.43111921     30.61812 
 1782000     1.001472   0.26462535    30.065703    83124.196   0.43116207    30.679452 
 1784000    1.0005287   0.28045344    30.061076    83115.629   0.43120651    30.711468 
 1786000   0.99915863   0.24473594     30.06619    83103.499   0.43126945    30.633668 
 1788000    1.0034792   0.23408096    30.068512    83095.039   0.43131336    30.611229 
 1790000   0.99596308   0.23439531    30.069916    83096.199   0.43130733    30.613369 
 1792000    1.0071541   0.23057967    30.071335    83091.719   0.43133059    30.605912 
 1794000    1.0035816   0.25877444    30.078156    83091.479   0.43133183    30.678099 
 1796000    1.0017965   0.23046332    30.070547    83089.057   0.43134441    30.604838 
 1798000    1.0058218   0.23731925    30.076115    83084.491   0.43136811     30.62627 
 1800000    1.0029592   0.28107301    30.074571    83089.202   0.43134365    30.726193 
 1802000    1.0030928   0.23253562    30.074585    83084.179   0.43136973    30.613648 
 1804000    1.0039347   0.25867092    30.074228    83085.031   0.43136531    30.673885 
 1806000    1.0055415   0.23681511    30.075427    83085.828   0.43136117    30.624422 
 1808000    1.0105533   0.26223854    30.084978    83088.418   0.43134772    30.692929 
 1810000    1.0093725   0.18199611    30.078329    83093.119   0.43132332    30.500277 
 1812000     1.001825   0.21802169    30.078618    83098.419   0.43129581    30.584122 
 1814000    1.0063602   0.29596291    30.074903    83100.436   0.43128534    30.761137 
 1816000    1.0087819    0.2733295    30.081352    83097.699   0.43129955    30.715086 
 1818000    1.0064288   0.27160716    30.073915    83094.612   0.43131557    30.703633 
 1820000    1.0036027   0.23392275     30.07135    83095.092   0.43131308    30.613701 
 1822000    1.0023643   0.28068155    30.068564    83089.913   0.43133996    30.719284 
 1824000    1.0003279    0.2249783    30.067286    83077.033   0.43140684    30.588785 
 1826000   0.99723972   0.20625587    30.074361    83073.007   0.43142775    30.552438 
 1828000    1.0060833   0.30668624     30.07885    83069.087    0.4314481     30.78968 
 1830000   0.99648689   0.24305725      30.0637    83064.394   0.43147248    30.627021 
 1832000    1.0020516   0.22079371    30.060821    83060.623   0.43149207    30.572519 
 1834000   0.99819398   0.23966829    30.066299    83053.609   0.43152851    30.621693 
 1836000   0.99884705   0.23503394    30.071709    83044.735   0.43157462    30.616305 
 1838000   0.99719615   0.22900797    30.065399    83031.688   0.43164244     30.59595 
 1840000   0.99722687   0.23318237    30.061087    83023.875   0.43168306    30.601257 
 1842000   0.99552772   0.27348802    30.060012    83023.098    0.4316871    30.693545 
 1844000    1.0019946   0.27536508    30.066157    83011.777   0.43174597    30.703951 
 1846000   0.99631969   0.25125304    30.072372    83004.062    0.4317861    30.654264 
 1848000   0.99653728   0.30638791     30.07038    83000.946    0.4318023    30.779936 
 1850000   0.99910283   0.25422997     30.06931    83004.414   0.43178426    30.658099 
 1852000    1.0006063   0.24475255    30.068138    83009.754   0.43175649    30.635015 
 1854000   0.99865003   0.27395061    30.065221    83011.723   0.43174625    30.699739 
 1856000   0.99807935   0.25736281    30.069833    83011.665   0.43174655     30.66593 
 1858000    1.0053521   0.25683204    30.071718     83008.06    0.4317653     30.66656 
 1860000     1.004185   0.25293569    30.067736    83009.858   0.43175595    30.653566 
 1862000    1.0012174   0.26041484    30.063306     83010.51   0.43175256    30.666463 
 1864000   0.99700782   0.26364517    30.055311    83006.548   0.43177317    30.665922 
 1866000   0.99882631   0.22220656    30.067456    83006.153   0.43177522    30.582091 
 1868000    1.0018262   0.24335712    30.067026    83008.514   0.43176294    30.630662 
 1870000     0.997018   0.23913012    30.061164    83013.283   0.43173814    30.615041 
 1872000     0.996789   0.23970784    30.060679    83010.885   0.43175061    30.615879 
 1874000    1.0004552   0.22748759    30.065635    83007.148   0.43177004    30.592507 
 1876000   0.99552253   0.24225515    30.059354    83006.661   0.43177258    30.620425 
 1878000   0.99794056   0.19575264    30.064509    83003.878   0.43178705    30.517863 
 1880000   0.99418438   0.26929297    30.054857    83005.108   0.43178066    30.678537 
 1882000   0.99581315   0.31003123    30.056936    83001.232   0.43180082    30.774932 
 1884000   0.99780835   0.22281105     30.06266    82997.202   0.43182179    30.578639 
 1886000    1.0011208   0.27322254    30.062948    82996.537   0.43182524    30.695664 
 1888000    1.0006422    0.1857243    30.061576    82992.373   0.43184691    30.491645 
 1890000   0.99992386   0.26609278    30.064691    82987.952   0.43186992    30.680832 
 1892000   0.99813904   0.26617643    30.070989    82994.154   0.43183765     30.68737 
 1894000    1.0056527   0.27022176    30.067306    82993.313   0.43184202    30.693048 
 1896000    1.0064357   0.25096489    30.068867    82994.161   0.43183761    30.650023 
 1898000    1.0000444   0.20854933    30.066204    82997.283   0.43182137    30.549156 
 1900000    1.0044624   0.23224426    30.066922     82999.38   0.43181046     30.60476 
 1902000   0.99722067   0.24104952    30.067429     82987.79   0.43187076    30.625581 
 1904000   0.99884309   0.20957494    30.064529    82988.872   0.43186513    30.549808 
 1906000    1.0012846   0.19485162    30.064916    82998.007    0.4318176    30.516152 
 1908000     1.001707   0.27762288    30.065495     82995.91   0.43182851    30.708396 
 1910000    0.9950625   0.26919076    30.064792    82990.635   0.43185595    30.688127 
 1912000   0.99754811   0.22639174     30.06528    82989.342   0.43186269    30.589501 
 1914000   0.99937097   0.26106003    30.062437    82983.731   0.43189188    30.666894 
 1916000    0.9961899   0.28153136     30.05844    82982.283   0.43189942    30.710285 
 1918000   0.99452825   0.26434741    30.051066    82977.466    0.4319245    30.663088 
 1920000   0.98974248   0.23629434    30.052292    82976.453   0.43192977    30.599359 
 1922000   0.99259207   0.26685119    30.057285    82974.871     0.431938    30.675085 
 1924000   0.99663535   0.26844409    30.058047    82968.011   0.43197372    30.679484 
 1926000   0.99931365   0.26689766    30.056886    82962.061    0.4320047    30.674698 
 1928000    1.0022498   0.26028804    30.062318    82957.847   0.43202664      30.6648 
 1930000   0.99891362   0.21739826    30.063008    82959.797   0.43201649    30.566226 
 1932000   0.99561721   0.25663684      30.0661    82959.559   0.43201773    30.660143 
 1934000    1.0005102   0.23269279    30.065245    82962.527   0.43200227    30.603883 
 1936000   0.99895221   0.27042231     30.06615    82960.018   0.43201534    30.692105 
 1938000   0.99965216   0.28346738    30.059826    82967.823   0.43197469    30.716039 
 1940000    0.9979111   0.23846209    30.062101    82968.759   0.43196982    30.614135 
 1942000   0.99643213   0.22350579     30.06472    82965.304   0.43198781    30.582109 
 1944000   0.99919385   0.25751935    30.065895    82958.373    0.4320239    30.661972 
 1946000    1.0057222   0.22798699    30.068068    82963.147   0.43199904    30.595817 
 1948000    1.0033999   0.20271879    30.070873    82967.123   0.43197834    30.540153 
 1950000   0.99904992    0.3054601    30.070659    82969.308   0.43196696    30.777796 
 1952000    1.0002124   0.23086668    30.065648     82967.78   0.43197492    30.600093 
 1954000    1.0000215    0.2160764    30.072108    82965.748    0.4319855    30.572302 
 1956000    0.9999778   0.19844915    30.075128    82965.875   0.43198484    30.534517 
 1958000    1.0012624   0.22513947    30.072701    82967.819   0.43197471    30.593888 
 1960000    1.0029247   0.24740298    30.075087    82970.973   0.43195829    30.647834 
 1962000    1.0016345   0.30498983    30.065817    82974.954   0.43193757    30.771914 
 1964000    1.0041198   0.23273772    30.069316    82980.465   0.43190888    30.608174 
 1966000    1.0023102   0.31575525    30.065556    82989.883   0.43185987    30.796708 
 1968000   0.99687493   0.26699713    30.060459    82985.933   0.43188043     30.67868 
 1970000     1.003042   0.22537189    30.064373    82989.084   0.43186402    30.586231 
 1972000    1.0002598   0.25946624    30.067948    82991.505   0.43185143    30.668771 
 1974000   0.99648238   0.18927596    30.060311    82989.911   0.43185972    30.498592 
 1976000    0.9992728   0.22231331    30.056544    82987.402   0.43187278    30.571309 
 1978000    1.0031702   0.26400467     30.06485    82990.642   0.43185592    30.676176 
 1980000    1.0003125   0.26334478    30.062253    82994.073   0.43183807    30.672076 
 1982000   0.99809035   0.24564278    30.066946    82994.547    0.4318356     30.63578 
 1984000    1.0005487   0.25845173    30.068243    82994.913    0.4318337    30.666742 
 1986000    1.0000089   0.25232843    30.059126    82991.111   0.43185348    30.643418 
 1988000   0.99138813   0.22488077    30.060335    82991.745   0.43185018    30.581073 
 1990000   0.99621151   0.30209646     30.06436    82991.456   0.43185168    30.763898 
 1992000    1.0021516   0.27020874      30.0654    82996.561   0.43182512    30.691136 
 1994000   0.99576692   0.24613428    30.057348    82998.777   0.43181359    30.627349 
 1996000   0.99483983   0.29805057    30.057016    83006.442   0.43177372     30.74731 
 1998000    1.0047334   0.24573901    30.070215    83010.007   0.43175517    30.639377 
 2000000    1.0027464   0.30686916    30.073903     83015.68   0.43172567      30.7847 
Loop time of 1740.22 on 32 procs for 1000000 steps with 35840 atoms

Performance: 248244.774 tau/day, 574.641 timesteps/s
99.9% CPU use with 32 MPI tasks x 1 OpenMP threads

MPI task timing breakdown:
Section |  min time  |  avg time  |  max time  |%varavg| %total
---------------------------------------------------------------
Pair    | 38.227     | 135.62     | 348.29     | 814.5 |  7.79
Bond    | 31.847     | 53.092     | 107.37     | 304.5 |  3.05
Neigh   | 197.82     | 199.15     | 200.72     |   6.6 | 11.44
Comm    | 241.04     | 492.43     | 663.23     | 535.8 | 28.30
Output  | 0.63209    | 0.63345    | 0.6347     |   0.1 |  0.04
Modify  | 781.83     | 846.01     | 964.94     | 163.3 | 48.62
Other   |            | 13.29      |            |       |  0.76

Nlocal:        1120.00 ave        1590 max         939 min
Histogram: 9 5 6 3 4 3 1 0 0 1
Nghost:        2393.28 ave        2900 max        2057 min
Histogram: 8 0 3 5 5 3 3 2 2 1
Neighs:        8608.09 ave       29815 max        1925 min
Histogram: 12 5 4 4 3 1 2 0 0 1

Total # of neighbors = 275459
Ave neighs/atom = 7.6857980
Ave special neighs/atom = 2.3459821
Neighbor list builds = 69919
Dangerous builds = 0
unfix 2

fix 2 all press/berendsen iso 0.5 0.5 $(1000*dt*5)
fix 2 all press/berendsen iso 0.5 0.5 25
run 2000000
Per MPI rank memory allocation (min/avg/max) = 11.52 | 11.64 | 11.68 Mbytes
Step Temp Press TotEng Volume Density Enthalpy 
 2000000    1.0027464   0.42412903    30.073899     83015.68   0.43172567    31.056303 
 2002000    1.0028005   0.28626642    30.065266    82204.466   0.43598604    30.721861 
 2004000   0.99833508   0.26238569     30.05478    81426.349   0.44015236    30.650905 
 2006000   0.99823864   0.24310021    30.055941    80684.162   0.44420118    30.603216 
 2008000   0.99506485   0.32102731    30.045388    79973.292   0.44814961    30.761727 
 2010000   0.99566714   0.26068628    30.044505     79286.94   0.45202905    30.621208 
 2012000    1.0034059   0.33827231    30.040203     78639.92   0.45574818    30.782439 
 2014000   0.99122065   0.30123185    30.038651    78021.866   0.45935841    30.694418 
 2016000   0.99672432   0.33019276    30.033351    77432.535   0.46285454    30.746734 
 2018000   0.99317169   0.29079892    30.028282    76876.268   0.46620369    30.652041 
 2020000   0.99126848   0.28184875    30.024986    76355.214    0.4693851     30.62545 
 2022000   0.99840908   0.30482569    30.021733    75853.769   0.47248806    30.666884 
 2024000   0.99450267   0.31411456    30.017423    75380.715   0.47545317    30.678086 
 2026000   0.99117763   0.39875619    30.014939    74924.083   0.47835086    30.848545 
 2028000   0.99774907   0.37732375    30.008934    74498.195   0.48108548    30.793251 
 2030000   0.99613316   0.39333055    30.012684     74101.76   0.48365923    30.825923 
 2032000   0.98926786   0.40488514    30.009605    73726.757    0.4861193    30.842497 
 2034000   0.99850451   0.35468242    30.016788    73370.693   0.48847841    30.742884 
 2036000    1.0011173    0.4116477    30.017751    73037.294   0.49070821    30.856636 
 2038000   0.99869187   0.42654945    30.011921     72725.14   0.49281445    30.877458 
 2040000   0.99491176   0.41361149    30.012861    72434.901   0.49478911    30.848796 
 2042000   0.99518494   0.47132119    30.008472    72150.257   0.49674112    30.957298 
 2044000   0.99323019   0.41210063    30.003069    71885.445   0.49857102    30.829633 
 2046000    0.9996431   0.44277804     30.00575    71628.679   0.50035824    30.890672 
 2048000    1.0001289   0.46403846    30.011503    71399.021   0.50196766    30.935942 
 2050000   0.99682962   0.38905093    30.004342    71179.101   0.50351858    30.777007 
 2052000   0.99591416   0.45416818    30.003836    70970.049   0.50500177    30.903176 
 2054000    1.0034347   0.47828834    30.010166    70782.738   0.50633814    30.954769 
 2056000     1.006239   0.48746906    30.010999    70618.543   0.50751543      30.9715 
 2058000       1.0017   0.44591099    30.007653    70455.899     0.508687    30.884245 
 2060000    1.0037981   0.49736732    30.014926     70309.08   0.50974924    30.990636 
 2062000    1.0062519   0.40397159    30.013569    70178.575   0.51069717    30.804589 
 2064000    1.0064954   0.45319851    30.001519    70045.667    0.5116662     30.88725 
 2066000    1.0114951   0.51942414    30.010029    69916.065   0.51261466    31.023313 
 2068000    1.0030634   0.46320697    30.002551    69796.338   0.51349399     30.90462 
 2070000    1.0016538   0.48406978    29.999174    69690.389   0.51427465    30.940441 
 2072000     1.006734   0.47763728    30.006158    69585.194   0.51505209    30.933515 
 2074000      1.00266   0.47899542    30.001587    69487.168   0.51577869    30.930271 
 2076000   0.99954952   0.52184908    30.002096    69397.124   0.51644791    31.012554 
 2078000    1.0060062   0.51475119    30.004802    69312.043   0.51708186    31.000295 
 2080000    1.0081487   0.52422241    30.004645    69245.308    0.5175802    31.017478 
 2082000    1.0061729   0.48555078    30.001596    69175.121   0.51810535    30.938762 
 2084000   0.99642692    0.4772262    29.992837    69116.377    0.5185457    30.913154 
 2086000    1.0066539   0.45965682    29.991704    69047.606   0.51906217    30.877257 
 2088000   0.99907365   0.48539244    29.989825    68992.628   0.51947579    30.924214 
 2090000   0.99580076   0.54754143    29.987701    68924.392   0.51999008    31.040686 
 2092000   0.99874494   0.46168902    29.986691    68865.921   0.52043158    30.873818 
 2094000   0.99656347    0.5067901    29.987439    68805.986   0.52088491     30.96038 
 2096000   0.99733625   0.45582203    29.987587    68753.481    0.5212827    30.862011 
 2098000   0.99940975   0.46230026    29.988486    68691.521    0.5217529    30.874538 
 2100000   0.99988919   0.48114428    29.991593    68653.702   0.52204031    30.913254 
 2102000    1.0001834   0.52757454    29.986883    68612.879   0.52235091    30.996884 
 2104000    1.0046562   0.48947703    29.998279    68585.793    0.5225572    30.934975 
 2106000    1.0043521   0.47676257    29.994568    68552.568   0.52281047    30.906491 
 2108000    1.0062862   0.47734644    29.997941    68536.133   0.52293583    30.910761 
 2110000     1.005876   0.47822672    29.998495    68512.232   0.52311827    30.912679 
 2112000    1.0054538   0.47729696    29.992954    68493.271   0.52326308    30.905109 
 2114000    1.0000568   0.51064974    29.993595    68467.998   0.52345623     30.96913 
 2116000   0.99770339   0.49896346    29.990362    68443.358   0.52364468    30.943228 
 2118000   0.99726606   0.52349173    29.987048    68417.437   0.52384307    30.986378 
 2120000   0.99889519   0.54450445    29.983637    68384.763   0.52409336    31.022582 
 2122000   0.99666318   0.43926965    29.979817    68367.758   0.52422371     30.81776 
 2124000   0.99839975   0.51385178    29.976606    68350.545   0.52435573    30.956574 
 2126000   0.99501571   0.48102574    29.978094     68324.32   0.52455699    30.895107 
 2128000   0.99588974   0.45624341    29.978202    68299.843   0.52474499     30.84766 
 2130000    1.0001137   0.48692759     29.98741     68283.38    0.5248715    30.915118 
 2132000   0.99610833   0.48156295    29.978285    68274.908   0.52493663    30.895659 
 2134000   0.99607333   0.56125414    29.980662    68266.411   0.52500196    31.049713 
 2136000   0.99829237   0.50119216    29.981876    68270.461   0.52497082    30.936581 
 2138000   0.99706626   0.47397927    29.975533    68267.595   0.52499286    30.878363 
 2140000   0.99714948   0.49295477    29.978898    68258.908   0.52505967    30.917753 
 2142000   0.99472836   0.52088089    29.972933    68239.013   0.52521275    30.964685 
 2144000   0.99913615    0.5008024    29.979082    68225.747   0.52531488     30.93242 
 2146000    1.0021907   0.56013244     29.98477    68214.501   0.52540148    31.050874 
 2148000    1.0066474   0.48528827     29.98774    68213.479   0.52540936    30.911379 
 2150000    1.0015456   0.48742496    29.981217    68205.053   0.52547427    30.908807 
 2152000   0.99864006   0.52016819    29.990244    68194.684   0.52555416    30.979995 
 2154000    1.0003011   0.49604699     29.98822    68190.939   0.52558302    30.932023 
 2156000     1.003229   0.42417737    29.983644    68186.912   0.52561406    30.790657 
 2158000    1.0030365   0.49768684    29.980574    68183.528   0.52564015    30.927395 
 2160000    1.0009309   0.53679053    29.976183    68176.903   0.52569123    30.997296 
 2162000   0.99827669   0.50093949    29.972416    68175.293   0.52570364     30.92531 
 2164000   0.99647777   0.47087306    29.979067    68164.058   0.52579029     30.87462 
 2166000   0.99941523   0.51786512    29.985907    68162.338   0.52580356    30.970809 
 2168000   0.99547679   0.44660291    29.978614    68162.643    0.5258012     30.82799 
 2170000   0.99491332   0.46931831    29.983029     68157.65   0.52583973    30.875541 
 2172000   0.99604932    0.4746851    29.981052    68147.793   0.52591579     30.88364 
 2174000   0.99934342   0.52248097    29.980778    68150.808   0.52589252     30.97429 
 2176000   0.99986712   0.48447451    29.975041    68151.842   0.52588454    30.896298 
 2178000    1.0037024   0.53159292    29.981825    68149.373   0.52590359    30.992643 
 2180000    1.0011604   0.43950029    29.985296    68144.953    0.5259377    30.820947 
 2182000   0.99830053   0.49510926    29.982246     68134.98   0.52601468    30.923492 
 2184000    0.9993485   0.46056245    29.980147    68141.464   0.52596463      30.8558 
 2186000   0.99917176   0.52632614    29.980176    68155.222   0.52585846    30.981066 
 2188000    1.0012382   0.50616048     29.98339    68154.866   0.52586121    30.945926 
 2190000    1.0025516   0.49742717    29.991177    68156.429   0.52584914    30.937128 
 2192000   0.99653539   0.46938526     29.98419    68146.061   0.52592915    30.876677 
 2194000   0.99574513   0.46639421     29.98414    68139.771    0.5259777    30.870859 
 2196000    1.0024855   0.53284317       29.985    68141.976   0.52596068    30.998085 
 2198000    1.0011695   0.51663376    29.983841    68134.109   0.52602141    30.965994 
 2200000    1.0002289   0.45292468    29.986624    68123.276   0.52610506    30.847526 
 2202000     1.002316   0.53264153    29.988152    68119.799   0.52613191    31.000525 
 2204000   0.99897923   0.48919746    29.984268    68124.042   0.52609914    30.914126 
 2206000    0.9989773   0.53533774    29.978664    68131.224   0.52604368    30.996332 
 2208000   0.99959774   0.42033542    29.979476    68129.148   0.52605972    30.778502 
 2210000    1.0010295   0.51175222    29.985803    68142.584   0.52595599    30.958797 
 2212000    1.0070433   0.45314613    29.989019    68146.864   0.52592295     30.85064 
 2214000    1.0054017   0.51252092    29.988917    68141.473   0.52596456    30.963357 
 2216000   0.99517042   0.51061691    29.984274    68142.723   0.52595492    30.955112 
 2218000   0.99971629   0.49191092    29.981807    68147.481   0.52591819    30.917145 
 2220000    1.0001929   0.52656297    29.986415    68137.649   0.52599408    30.987497 
 2222000    1.0024548    0.5502157    29.990722    68138.414   0.52598817    31.036783 
 2224000     1.006985   0.45209744    29.989459     68129.12   0.52605993    30.848862 
 2226000    1.0034911   0.51932801    29.980627    68125.207   0.52609014    30.967773 
 2228000    1.0027432   0.50634183    29.985447    68134.739   0.52601655    30.948043 
 2230000      1.00247   0.49968989     29.99435    68139.425   0.52598037    30.944366 
 2232000   0.99760846   0.48816444    29.982586    68132.776    0.5260317    30.910599 
 2234000   0.99847301   0.54546068    29.984052    68137.509   0.52599516    31.021059 
 2236000   0.99962323   0.49526261    29.982302    68139.262   0.52598163    30.923899 
 2238000    1.0031497   0.55577377    29.986002    68134.472   0.52601861    31.042569 
 2240000   0.99969151   0.48433637    29.987074     68136.52   0.52600279    30.907861 
 2242000    1.0027591    0.5120596    29.984918    68131.614   0.52604067     30.95834 
 2244000    1.0062026   0.51207957    29.990296    68141.097   0.52596746    30.963891 
 2246000    1.0008253   0.57121086    29.987336    68147.284   0.52591971    31.073454 
 2248000    1.0069135   0.51176376    29.989261     68151.11   0.52589019    30.962399 
 2250000   0.99857575   0.50464522     29.98768    68151.902   0.52588408    30.947293 
 2252000    1.0039293   0.50927594    29.981031    68149.877    0.5258997    30.949421 
 2254000    1.0022338   0.50681172    29.985928    68147.555   0.52591762    30.949599 
 2256000    1.0021932   0.52320896    29.988829    68152.662   0.52587821    30.983754 
 2258000    1.0020902   0.55663203    29.991531      68151.8   0.52588486    31.049998 
 2260000    1.0065459   0.50206206    29.991525    68160.074   0.52582102    30.946341 
 2262000    1.0060335   0.52171532    29.995907    68165.207   0.52578143    30.988174 
 2264000    1.0106434   0.56008959    29.994976    68175.416    0.5257027    31.060387 
 2266000    1.0096762   0.48459136    29.995236    68172.944   0.52572176       30.917 
 2268000    1.0029491   0.50237731    29.992618    68178.432   0.52567944     30.94829 
 2270000    1.0105856   0.51902192    29.989777    68171.807   0.52573053    30.977017 
 2272000    1.0040926    0.4572559    29.992505    68169.663   0.52574706    30.862231 
 2274000    1.0004026    0.5063409    29.991699    68169.807   0.52574595    30.954789 
 2276000   0.99870685   0.51097264    29.991181    68174.946   0.52570632    30.963154 
 2278000     1.007195   0.50525544    29.996623    68175.583   0.52570141     30.95773 
 2280000    1.0059219   0.52908357    29.992644    68184.371   0.52563365    30.999207 
 2282000   0.99997226   0.43823138     29.98811    68192.702   0.52556943    30.821932 
 2284000   0.99976346   0.48296651    29.987695    68187.386   0.52561041    30.906563 
 2286000   0.99757467   0.53410566    29.978865    68198.395   0.52552557    30.995191 
 2288000   0.99804948    0.5324186    29.979436    68193.575   0.52556271    30.992481 
 2290000   0.99508466   0.53501245    29.984525    68187.021   0.52561322    31.002407 
 2292000   0.99842049    0.4774675    29.993566    68182.397   0.52564887    30.901905 
 2294000    1.0030863   0.50920805    29.987928    68176.099   0.52569743    30.956561 
 2296000    1.0032728   0.55117927    29.997568     68175.47   0.52570228    31.046031 
 2298000    1.0048373   0.52533506    29.992887    68179.011   0.52567498    30.992241 
 2300000    1.0021257   0.46157105    29.992545    68182.295   0.52564966    30.870642 
 2302000    1.0021198   0.45948093    29.990126     68181.77    0.5256537    30.864239 
 2304000    1.0016431   0.51024223     29.98526    68181.811   0.52565339    30.955942 
 2306000    1.0068996   0.53496923    29.988188     68176.71   0.52569272    31.005835 
 2308000    1.0031713   0.43549491     29.99035    68181.081   0.52565902    30.818824 
 2310000   0.99988435   0.44408859    29.975978    68176.217   0.52569652     30.82074 
 2312000   0.99455746   0.46342988     29.97557    68170.654   0.52573942    30.857052 
 2314000   0.99847936   0.45459227    29.982521    68171.824    0.5257304    30.847208 
 2316000   0.99789222   0.48666153    29.979049    68163.588   0.52579392    30.904624 
 2318000    1.0010391   0.50836896    29.992196    68159.673   0.52582412       30.959 
 2320000      1.00167   0.54516326    29.989104    68156.527   0.52584839    31.025835 
 2322000    1.0046693   0.53427561    29.993944    68156.268   0.52585039    31.009966 
 2324000   0.99960999   0.53208441    29.993011    68163.025   0.52579826    31.004967 
 2326000    1.0071427   0.53131814    29.989109    68174.449   0.52571015    30.999777 
 2328000    1.0027832   0.50027966    29.995808     68186.33   0.52561855    30.947601 
 2330000    1.0040701   0.48395431    29.992433    68186.354   0.52561837    30.913167 
 2332000    1.0091179   0.48067279    29.997959    68190.975   0.52558275    30.912511 
 2334000    1.0052879   0.48983193    30.003101    68206.414   0.52546378     30.93529 
 2336000   0.99972005   0.47598363    29.985273    68209.625   0.52543904    30.891151 
 2338000    1.0011163   0.54844677    29.989009    68208.253   0.52544961    31.032775 
 2340000   0.99904366   0.47649326    29.981951     68209.52   0.52543985    30.888798 
 2342000   0.99852942   0.50515733    29.979058    68201.691   0.52550017    30.940347 
 2344000    1.0041437   0.53079096    29.985263     68194.68   0.52555419    30.995228 
 2346000   0.99956464   0.54394827    29.983519    68194.601    0.5255548    31.018518 
 2348000     1.003351   0.47307986    29.992375    68195.536    0.5255476    30.892541 
 2350000    1.0018583    0.5729604    29.987925    68204.623   0.52547757    31.078286 
 2352000    1.0068724   0.51268312     29.98613    68208.926   0.52544443    30.961843 
 2354000    1.0045657   0.47773701     29.98758    68215.837   0.52539119    30.896878 
 2356000   0.99960904   0.48313739    29.981123    68224.503   0.52532446    30.900816 
 2358000   0.99916553   0.55976066    29.981082    68214.237   0.52540352    31.046474 
 2360000   0.99532429    0.4711117    29.979248    68203.484   0.52548635    30.875773 
 2362000   0.99971398    0.4255308    29.984922    68185.228   0.52562705     30.79449 
 2364000    1.0036753   0.48885324    29.986402    68180.408   0.52566421    30.916374 
 2366000   0.99903008   0.52133217     29.97301    68182.801   0.52564576    30.964804 
 2368000    1.0008753   0.47320705    29.983888    68174.485   0.52570987    30.884018 
 2370000    1.0015278   0.47618224    29.982547    68171.336   0.52573416    30.888294 
 2372000   0.99948405   0.47651082    29.985967    68162.772   0.52580021    30.892225 
 2374000     1.000069   0.44078993    29.988069    68163.859   0.52579183    30.826405 
 2376000    1.0069539   0.50108188    29.989217    68162.342   0.52580353      30.9422 
 2378000    1.0066422    0.4982237    29.985769    68160.387   0.52581861    30.933289 
 2380000    1.0003929   0.46817704    29.982135    68162.329   0.52580363    30.872537 
 2382000   0.99821654   0.49637095    29.985261    68157.322   0.52584226    30.929215 
 2384000   0.99753749   0.49673097    29.975626    68151.334   0.52588846    30.920182 
 2386000    1.0028119   0.49309724    29.980256    68142.833   0.52595407    30.917785 
 2388000   0.99740464   0.51387874    29.974324    68138.217    0.5259897    30.951298 
 2390000   0.99140006   0.46045466    29.965153    68129.766   0.52605494     30.84045 
 2392000   0.99465234   0.52000875    29.972602    68120.643   0.52612539    30.960976 
 2394000   0.99845305   0.45181061    29.972268    68116.368   0.52615841    30.830965 
 2396000   0.99300578   0.48541421    29.973654    68116.406   0.52615812    30.896217 
 2398000   0.99906109   0.49874146    29.970043     68109.35   0.52621263    30.917837 
 2400000    0.9943832   0.46977504    29.967049    68110.002   0.52620759    30.859805 
 2402000    0.9981042   0.46747026    29.977287    68104.846   0.52624743    30.865596 
 2404000   0.99980816   0.49750219    29.973013    68107.324   0.52622828    30.918424 
 2406000   0.99161235   0.50665538    29.965597    68103.656   0.52625662    30.928351 
 2408000   0.99276362   0.50986939    29.974349     68098.77   0.52629438     30.94314 
 2410000   0.99527194     0.495066    29.972435    68087.743   0.52637961    30.912946 
 2412000   0.99836397   0.49885428    29.974661    68088.977   0.52637007    30.922386 
 2414000    0.9975481   0.51533548    29.979986    68090.328   0.52635963    30.959042 
 2416000     1.001115    0.5722225    29.980465     68087.12   0.52638443    31.067546 
 2418000    0.9991685   0.51647185      29.9799    68089.042   0.52636957    30.961096 
 2420000    1.0016346   0.46350142    29.979513    68093.481   0.52633526    30.860133 
 2422000    1.0046757    0.5549935    29.974188    68094.155   0.52633005    31.028647 
 2424000    1.0057504   0.52741913    29.977405    68099.197   0.52629108    30.979549 
 2426000   0.99976958   0.48693119    29.971483    68109.943   0.52620805    30.896841 
 2428000   0.99489935   0.49322334    29.970604    68116.181   0.52615986    30.908006 
 2430000    1.0006525   0.46093644    29.975756    68106.156   0.52623731    30.851666 
 2432000    1.0014584   0.51538949    29.980598    68100.595   0.52628028    30.959905 
 2434000    1.0027968   0.51681261    29.976597    68102.989   0.52626178    30.958641 
 2436000   0.99538739   0.50191179    29.973577    68109.518   0.52621133    30.927399 
 2438000   0.99902285   0.47465764    29.986986    68112.108   0.52619132    30.889048 
 2440000      1.00032   0.46440383    29.985363    68116.392   0.52615823    30.867995 
 2442000   0.99926501   0.49332016    29.977825    68122.562   0.52611057    30.915499 
 2444000   0.99864644   0.52900169    29.990226    68124.991   0.52609181    30.995757 
 2446000    1.0031274   0.56125441    29.983974    68125.353   0.52608901    31.050817 
 2448000    1.0004808   0.52709596    29.972849     68130.32   0.52605066    30.974836 
 2450000    1.0005883   0.46430292    29.975274    68125.374   0.52608885     30.85783 
 2452000   0.99601742    0.4239759    29.973023    68122.449   0.52611145     30.77889 
 2454000   0.99504015   0.49049872    29.970032    68123.036   0.52610691    30.902349 
 2456000   0.99840003   0.44953174    29.974371    68112.804   0.52618595    30.828692 
 2458000   0.99776464   0.54207902    29.976803    68109.468   0.52621172    31.006957 
 2460000    0.9915924   0.56410039    29.977464    68099.998   0.52628489    31.049318 
 2462000    1.0014691   0.54481847    29.977076    68102.055     0.526269    31.012323 
 2464000   0.99594656   0.50458189    29.968369    68097.136   0.52630701    30.927091 
 2466000   0.99877584   0.44481213    29.975997    68093.127   0.52633799    30.821104 
 2468000   0.99682874   0.45505489    29.975769    68097.811   0.52630179    30.840396 
 2470000   0.99771723   0.47829721    29.979474    68110.368   0.52620476    30.888431 
 2472000   0.99641547   0.47943031    29.976548    68101.333   0.52627457    30.887537 
 2474000   0.99292505   0.51512154     29.96871    68097.125    0.5263071    30.947457 
 2476000   0.99227506   0.51103252    29.966384    68091.066   0.52635393    30.937275 
 2478000   0.99729316    0.4729964    29.971976    68089.975   0.52636236    30.870589 
 2480000    1.0000317   0.50190974    29.970985    68091.668   0.52634927    30.924553 
 2482000   0.99873032   0.46860568    29.970011    68096.891   0.52630891    30.860374 
 2484000   0.99929278   0.50856286    29.981458    68107.175   0.52622943    30.947886 
 2486000   0.99886455   0.48765141    29.975519    68104.894   0.52624706    30.902178 
 2488000   0.99481994   0.42302189    29.978728    68107.579   0.52622631    30.782607 
 2490000   0.99884841   0.46638752    29.971619    68107.279   0.52622863    30.857902 
 2492000    1.0010065   0.49036193    29.974493    68106.699   0.52623311    30.906327 
 2494000   0.99637234   0.50980541    29.972974     68107.05   0.52623039    30.941761 
 2496000   0.99502677   0.47160254    29.969164    68106.809   0.52623226    30.865352 
 2498000   0.99640253   0.47891269     29.97507     68105.19   0.52624477    30.885127 
 2500000   0.99036288    0.5492474    29.967834    68103.025    0.5262615    31.011511 
 2502000   0.99653833   0.45027035    29.981189    68108.941   0.52621579    30.836865 
 2504000   0.99735478   0.54266579    29.971567     68103.21   0.52626007    31.002741 
 2506000   0.99431984   0.48224372    29.969131    68102.578   0.52626495    30.885483 
 2508000   0.99286347   0.52316735     29.96414    68095.112   0.52632265    30.958145 
 2510000   0.99605404   0.52032996    29.972039    68079.966   0.52643975    30.960433 
 2512000   0.99465013   0.53582757    29.971636    68082.191   0.52642254    30.989502 
 2514000   0.99359762   0.47055118    29.976284    68084.911   0.52640151    30.870186 
 2516000   0.99498822   0.48155494    29.970414    68084.506   0.52640464    30.885214 
 2518000    1.0016134   0.50456514    29.983783    68074.184   0.52648446    30.942149 
 2520000    1.0026334   0.52563891    29.987499    68084.628    0.5264037    30.986046 
 2522000     1.002097   0.54906599    29.982513    68091.204   0.52635286    31.025665 
 2524000   0.99690996   0.48146522    29.977421    68091.698   0.52634904    30.892147 
 2526000   0.99782726   0.48759843    29.980247    68104.561   0.52624963      30.9068 
 2528000     1.001848   0.50915113    29.977549     68098.02   0.52630018    30.944965 
 2530000   0.99738377   0.52845506    29.982608    68108.303   0.52622072    30.986854 
 2532000    1.0033855   0.53244895    29.987747    68105.573   0.52624181    30.999542 
 2534000    1.0043298   0.46115955    29.996267    68114.666   0.52617156     30.87271 
 2536000    1.0067699   0.51143084    29.998194    68120.013   0.52613026    30.970255 
 2538000    1.0066817   0.48112365    29.997748    68130.802   0.52604694     30.91235 
 2540000    1.0004223   0.57051741    29.983338    68144.693   0.52593971    31.068096 
 2542000     1.000887   0.50695461    29.985005    68150.799   0.52589259    30.948994 
 2544000   0.99748893   0.50701191     29.98658    68145.941   0.52593007    30.950609 
 2546000    1.0012972   0.47986021    29.984809    68157.889   0.52583788    30.897372 
 2548000   0.99910435   0.49112124    29.987711    68151.592   0.52588647    30.921603 
 2550000    1.0025897   0.58415739    29.984912    68144.125   0.52594409    31.095596 
 2552000    1.0018456   0.53348007    29.984297    68148.927   0.52590703    30.998697 
 2554000   0.99929729   0.47161798    29.983421    68139.991     0.525976    30.880074 
 2556000   0.99415049   0.47084036    29.979731    68140.936   0.52596871    30.874918 
 2558000   0.99335803   0.48287176    29.977549    68141.332   0.52596565    30.895616 
 2560000   0.99246609   0.51252306    29.967917     68130.75   0.52604735    30.942208 
 2562000   0.99249327   0.48379707    29.968931    68123.981   0.52609961    30.888524 
 2564000     0.993585   0.46567162    29.966358    68125.527   0.52608767    30.851517 
 2566000    0.9942022   0.48693114    29.975452    68111.534   0.52619575    30.900833 
 2568000   0.98926271   0.53804364     29.96937    68105.964   0.52623879    30.991803 
 2570000    1.0002958   0.52984581    29.977102    68102.779    0.5262634     30.98391 
 2572000   0.99903972   0.46851058    29.980228    68094.517   0.52632725    30.870379 
 2574000    1.0006227   0.44781389    29.983177    68091.071   0.52635389    30.833962 
 2576000   0.99701535   0.51549758    29.974036    68088.447   0.52637418    30.953373 
 2578000    1.0008951   0.51917624    29.976792     68092.85   0.52634014    30.963182 
 2580000   0.99570511   0.46938209    29.974488     68096.64   0.52631084    30.866322 
 2582000   0.99155171   0.52733343    29.965924    68101.035   0.52627688    30.967932 
 2584000   0.99614204   0.53556261    29.971358    68093.644     0.526334    30.988892 
 2586000   0.99600601   0.51160642    29.963745    68095.258   0.52632152    30.935786 
 2588000   0.99709128   0.50218796      29.9787     68100.15   0.52628372    30.932915 
 2590000   0.99831262   0.44153846    29.979049    68110.885   0.52620077    30.818156 
 2592000   0.99848831   0.48555199    29.984112    68124.763   0.52609358     30.90705 
 2594000     0.996357   0.46091708    29.981837    68134.258   0.52602026    30.858071 
 2596000   0.99764264   0.48620357    29.980437    68131.413   0.52604222    30.904704 
 2598000    0.9977145   0.51213972    29.975096    68119.437    0.5261347    30.948496 
 2600000    1.0016219   0.54573412    29.975237    68111.882   0.52619306    31.012374 
 2602000   0.99873885   0.45338686    29.981887    68119.175   0.52613673    30.843615 
 2604000    1.0013905   0.50205442    29.984866    68125.904   0.52608476    30.939188 
 2606000   0.99561126   0.52546512    29.982132    68127.485   0.52607255    30.980978 
 2608000    1.0010109   0.49560635    29.981798    68128.903   0.52606161    30.923905 
 2610000    1.0014258   0.48397077    29.984691    68136.416    0.5260036    30.904781 
 2612000    1.0050676   0.47536384    29.990112    68144.033    0.5259448     30.89394 
 2614000    1.0066809   0.48691892    29.997757    68148.484   0.52591045    30.923616 
 2616000    1.0079104   0.52033371    29.997275    68153.422   0.52587235    30.986743 
 2618000    1.0121384   0.52430898    30.000046    68164.111   0.52578988    30.997229 
 2620000    1.0100378   0.41678293    29.998537    68173.538   0.52571718    30.791326 
 2622000    1.0078896   0.49339917    29.991999    68186.213   0.52561946    30.930699 
 2624000    1.0006222   0.51857172    29.993076    68194.395   0.52555639    30.979786 
 2626000    1.0055975   0.48591866    29.992963     68192.26   0.52557284    30.917514 
 2628000    1.0016993   0.53329177    29.993788    68196.264   0.52554199    31.008535 
 2630000    1.0043359   0.51794441    29.991304    68193.769   0.52556121    30.976811 
 2632000    1.0040217   0.49885021    29.989317    68196.772   0.52553807    30.938535 
 2634000   0.99845526   0.44214055    29.980289    68196.242   0.52554215    30.821593 
 2636000    0.9984566   0.49473338    29.983483     68190.32    0.5255878    30.924778 
 2638000    1.0001439   0.50031556    29.982755    68188.499   0.52560183    30.934646 
 2640000    1.0044119   0.43904458     29.98865    68193.647   0.52556215    30.824031 
 2642000    1.0046588   0.49047538    29.986538    68192.193   0.52557336    30.919757 
 2644000    1.0017854   0.51371112    29.985133    68190.623   0.52558546    30.962541 
 2646000   0.99828842   0.50373864    29.987013     68190.58   0.52558579    30.945445 
 2648000    1.0031878   0.52525049    29.994572    68200.512   0.52550925     30.99408 
 2650000    1.0019378    0.5635292    29.985028     68189.43   0.52559466    31.057202 
 2652000   0.99631941   0.52794905    29.983741    68178.482   0.52567905    30.988059 
 2654000   0.99260849   0.49858293    29.976445    68173.073   0.52572077    30.924824 
 2656000     1.002165   0.49789266    29.978038    68171.512    0.5257328    30.925083 
 2658000   0.99795386   0.51863175    29.984172    68169.593    0.5257476    30.970637 
 2660000    1.0024973   0.49904917     29.97839    68172.051   0.52572865    30.927643 
 2662000   0.99369932   0.47580056    29.965466    68164.212   0.52578911    30.870393 
 2664000   0.99068825   0.53603911    29.974139     68150.32   0.52589628    30.993426 
 2666000   0.99557525   0.50338921    29.972995    68140.429   0.52597262    30.930059 
 2668000   0.99185417    0.4604327    29.972576    68133.843   0.52602346    30.847885 
 2670000   0.99491984   0.46312631    29.981703    68124.483   0.52609573    30.862011 
 2672000    1.0009943   0.52471183    29.977194     68115.42   0.52616574    30.974431 
 2674000   0.99456554   0.44254817    29.977996    68115.015   0.52616886    30.819073 
 2676000    1.0012516   0.51255976    29.979205    68115.297   0.52616669    30.953345 
 2678000    1.0006376   0.52378092     29.98395    68116.941   0.52615398     30.97944 
 2680000   0.99760975   0.51378275    29.985718    68121.128   0.52612165    30.962266 
 2682000     0.999534   0.49748985    29.985237    68119.208   0.52613648     30.93079 
 2684000     1.000069   0.53896644    29.984415     68135.81   0.52600828     31.00905 
 2686000    1.0034381   0.50982325    29.991873    68142.085   0.52595984    30.961193 
 2688000    1.0038976   0.52320136     29.99125    68152.467   0.52587972    30.986157 
 2690000    1.0052086   0.54102016    29.994114    68159.031   0.52582907    31.023004 
 2692000     1.005518   0.48408571    29.996561    68165.605   0.52577836    30.917264 
 2694000    1.0104145   0.53749656    30.000316    68169.008   0.52575211    31.022655 
 2696000    1.0033582   0.48160757    29.997051    68177.873   0.52568375    30.913206 
 2698000    1.0046539   0.54230799    29.989415     68188.28   0.52560352    31.021196 
 2700000     1.011914   0.51887486    29.992065    68199.037   0.52552061    30.979419 
 2702000    1.0024472   0.50919566    29.990543    68202.652   0.52549276     30.95953 
 2704000   0.99946808   0.46452191    29.988075    68199.042   0.52552058    30.872002 
 2706000    1.0038824   0.53786861    29.993193    68196.932   0.52553684    31.016658 
 2708000    1.0050664   0.50332612    29.984416    68198.192   0.52552713     30.94217 
 2710000   0.99651303   0.41795308    29.984334    68199.912   0.52551388    30.779657 
 2712000    1.0052471   0.54380426    29.976784    68191.437   0.52557919     31.01146 
 2714000   0.99701937    0.4932996    29.978592    68190.364   0.52558745     30.91716 
 2716000    1.0020605   0.51764923    29.979046    68173.298   0.52571903    30.963696 
 2718000    0.9962118   0.48894275    29.983009    68173.013   0.52572123     30.91305 
 2720000   0.99947024   0.47238662    29.983714     68176.52   0.52569418     30.88231 
 2722000   0.99862804   0.53754104    29.976092    68172.942   0.52572178    30.998574 
 2724000     1.001072   0.45804153    29.975578    68169.345   0.52574951    30.846794 
 2726000    1.0010665   0.53990133    29.982532    68161.875   0.52580713    31.009337 
 2728000   0.99334432   0.46548708    29.980486    68160.345   0.52581893    30.865748 
 2730000   0.99661856   0.51812516    29.981132    68160.227   0.52581985    30.966498 
 2732000   0.99511063   0.53257243    29.974162    68161.796   0.52580774    30.987027 
 2734000   0.99786039   0.45348833    29.977748    68153.449   0.52587214    30.840102 
 2736000     1.005799   0.50646492    29.985704    68146.143   0.52592852    30.948695 
 2738000    1.0023232   0.53456979    29.981924    68152.384   0.52588036    30.998448 
 2740000    1.0030859   0.53835457    29.990155    68151.917   0.52588396    31.013868 
 2742000    1.0074009   0.49385047     29.99028    68160.758   0.52581575    30.929488 
 2744000    1.0042602   0.51945712     29.99197    68172.791   0.52572294    30.980052 
 2746000     1.009087   0.51616333    29.991551    68181.311   0.52565725     30.97349 
 2748000     1.002872   0.48624653    29.984709    68189.147   0.52559684    30.909841 
 2750000     1.005472     0.508977    29.986657    68200.571    0.5255088    30.955199 
 2752000    1.0014791   0.49912987    29.995273    68214.044     0.525405    30.945263 
 2754000    1.0057681   0.42708406    29.989267        68211   0.52542845    30.802098 
 2756000   0.99801211   0.50364362    29.986632    68199.919   0.52551382    30.945015 
 2758000   0.99968192    0.4686489    29.986825    68206.396   0.52546392    30.878702 
 2760000   0.99941493   0.47747811    29.987018    68199.158   0.52551969    30.895601 
 2762000    1.0030744   0.49208284    29.990515     68193.64   0.52556221    30.926813 
 2764000    1.0000629   0.51527567     29.98983     68193.44   0.52556375    30.970255 
 2766000   0.99832011   0.49261167    29.980051    68193.214   0.52556549    30.917349 
 2768000    1.0032398   0.48203899    29.982898    68187.292   0.52561113         30.9 
 2770000   0.99867737    0.4958727    29.976849    68180.456   0.52566383    30.920176 
 2772000     1.003879   0.46157244    29.990786    68180.579   0.52566288    30.868863 
 2774000    1.0007232   0.47107264    29.984086    68191.938   0.52557532    30.880385 
 2776000    0.9984996   0.55052268    29.975682    68179.835   0.52566863    31.022963 
 2778000    1.0043476   0.55626595    29.981498    68178.615   0.52567803    31.039686 
 2780000    1.0037669   0.43533179    29.985926    68176.238   0.52569636    30.814031 
 2782000   0.99468035    0.5224831    29.980376    68175.653   0.52570087    30.974255 
 2784000   0.99808299   0.54494445    29.978771    68176.364   0.52569539    31.015387 
 2786000   0.99797206    0.4798533    29.981447    68177.651   0.52568546    30.894262 
 2788000     1.001003   0.49017923    29.982158    68167.731   0.52576196     30.91448 
 2790000    1.0031993   0.46890287    29.980745    68163.361   0.52579567    30.872541 
 2792000   0.99690142   0.46281062    29.984065    68159.121   0.52582837     30.86422 
 2794000    1.0052435   0.49731223    29.987472     68164.62   0.52578596    30.933317 
 2796000   0.99464301   0.45078479    29.980958     68158.84   0.52583055    30.838239 
 2798000   0.99760948    0.4677494    29.985528    68154.431   0.52586456    30.875015 
 2800000   0.99907877   0.51722577    29.982584    68155.916    0.5258531    30.966178 
 2802000   0.99994469   0.48845772    29.978802    68162.003   0.52580615    30.907772 
 2804000   0.99379602   0.47236729    29.980164    68164.088   0.52579006     30.87856 
 2806000    0.9943397   0.53705193    29.968751    68160.876   0.52581484    30.990122 
 2808000   0.99225241   0.45618761    29.971792    68147.014    0.5259218    30.839197 
 2810000   0.99276736   0.51429196     29.96798    68147.243   0.52592003     30.94587 
 2812000   0.99403192   0.54111078    29.971806    68140.525   0.52597188    31.000589 
 2814000   0.99385855   0.49748051    29.965909    68132.041   0.52603737    30.911622 
 2816000   0.98915126   0.42880463    29.968547    68123.846   0.52610066    30.783609 
 2818000   0.99507982   0.54591502    29.968063    68119.796   0.52613193    31.005664 
 2820000    0.9975685   0.53278192     29.97041    68114.992   0.52616904    30.982978 
 2822000    0.9927376   0.44214715    29.975747    68111.472   0.52619623    30.816017 
 2824000   0.99481223   0.52562429    29.976207    68113.118   0.52618351    30.975144 
 2826000   0.99480193   0.49169549    29.969284    68113.306   0.52618207    30.903743 
 2828000   0.99221504   0.53369174    29.969257     68102.59   0.52626486     30.98337 
 2830000   0.99987013    0.4869595    29.972986    68098.696   0.52629495    30.898245 
 2832000   0.99358522   0.52975867    29.973722    68097.591   0.52630349    30.980287 
 2834000   0.99660291   0.51113595    29.970362    68096.937   0.52630855    30.941533 
 2836000   0.99457669   0.45928912    29.977467    68077.127    0.5264617    30.849874 
 2838000   0.99467929   0.46393647    29.979129    68065.287   0.52655328     30.86021 
 2840000   0.99620333   0.48074668    29.979309    68069.629   0.52651969    30.892374 
 2842000     1.005125   0.48463295    29.986483    68077.161   0.52646144    30.907031 
 2844000    1.0061393   0.51724749    29.983022    68084.254   0.52640659    30.965623 
 2846000    1.0002792   0.44499169    29.993115    68090.811    0.5263559    30.838535 
 2848000    1.0013513   0.51592579     29.98534    68091.834   0.52634799    30.965539 
 2850000   0.99905961   0.52798839    29.978391     68100.11   0.52628402     30.98163 
 2852000   0.99950146   0.53226847    29.978062    68103.701   0.52625627    30.989487 
 2854000   0.99755394   0.56655449    29.981412    68108.859   0.52621642    31.058069 
 2856000   0.99432279   0.50570607    29.973344     68109.02   0.52621518    30.934369 
 2858000   0.99475691   0.50871743    29.969658    68113.441   0.52618102    30.936469 
 2860000   0.99378761   0.49759093    29.977192     68110.48    0.5262039    30.922816 
 2862000   0.99248821   0.48917448    29.972599    68099.931   0.52628541    30.902084 
 2864000   0.99493505   0.55076577    29.964126    68097.765   0.52630215    31.010608 
 2866000   0.99698045   0.50342131    29.976186    68094.383   0.52632829    30.932664 
 2868000   0.98943418     0.507533    29.973677    68086.021   0.52639293    30.937849 
 2870000    1.0004976   0.47449167     29.97478    68086.131   0.52639208    30.876183 
 2872000    1.0035263   0.52533955    29.985023    68087.194   0.52638386    30.983039 
 2874000    1.0101884   0.51377622    29.993706    68095.522   0.52631948    30.969874 
 2876000    1.0057857   0.50141832    29.993451    68104.666   0.52624882    30.946267 
 2878000    1.0085825   0.47509994    30.000379    68115.847   0.52616244    30.903332 
 2880000    1.0080014   0.47654547    29.998584    68128.109   0.52606774    30.904447 
 2882000    1.0080323   0.52003061    30.001396    68144.083   0.52594442    30.990151 
 2884000    1.0084927   0.53923583    29.997786    68160.789   0.52581551    31.023309 
 2886000    1.0075949    0.4729679    29.994153    68166.758   0.52576947    30.893726 
 2888000    1.0021387   0.50245499    29.985969    68167.175   0.52576625    30.941632 
 2890000    1.0006186   0.44909825    29.975516     68162.67     0.525801    30.829638 
 2892000   0.99801336   0.50825678    29.979746    68161.606   0.52580921    30.946364 
 2894000    1.0026274   0.49911087    29.983379     68165.49   0.52577925    30.932658 
 2896000   0.99930139   0.50402627    29.977829     68167.88   0.52576081    30.936489 
 2898000    1.0005588   0.45034258     29.98401    68174.927   0.52570646    30.840652 
 2900000    1.0000867   0.48126687    29.979748    68164.006    0.5257907    30.895068 
 2902000    1.0024881   0.48754827    29.982535    68156.632   0.52584758    30.909701 
 2904000   0.99933961   0.46781165    29.974093    68150.762   0.52589287     30.86365 
 2906000     1.000317   0.51479598    29.979997    68144.065   0.52594455    30.958799 
 2908000   0.99849792    0.5416201    29.980842    68148.562   0.52590985    31.010714 
 2910000    1.0010112   0.49507073    29.982141    68154.169   0.52586658    30.923578 
 2912000    1.0009755   0.47789602    29.981975    68154.955   0.52586052    30.890764 
 2914000    1.0010494   0.41648308    29.983511    68161.655   0.52580883    30.775592 
 2916000    1.0009075   0.47191767     29.97847    68165.658   0.52577795     30.87603 
 2918000    1.0017614   0.49282069    29.986925    68153.089   0.52587492    30.924069 
 2920000   0.99799642   0.46927217    29.982215    68141.866   0.52596153    30.874432 
 2922000    1.0005458   0.49177243    29.977543    68137.018   0.52599895    30.912473 
 2924000    1.0036157   0.47402153    29.984418    68134.391   0.52601923    30.885567 
 2926000    1.0030685   0.44168618    29.975635    68134.806   0.52601603    30.815317 
 2928000   0.99117135   0.45549079    29.979331    68120.048   0.52612999    30.845069 
 2930000   0.99934699   0.50183987    29.982416    68127.783   0.52607025    30.936357 
 2932000   0.99923842   0.45114468    29.981377    68133.701   0.52602456    30.839027 
 2934000   0.99989288   0.41888622    29.980699    68134.828   0.52601586    30.777036 
 2936000   0.99596255   0.50414474    29.975259    68140.467   0.52597233     30.93376 
 2938000   0.99692945   0.57393254    29.970779    68143.058   0.52595233    31.062004 
 2940000   0.99720331   0.53712649    29.974913    68139.583   0.52597915    30.996106 
 2942000   0.99730164   0.52610808    29.979531     68144.48   0.52594135    30.979848 
 2944000    1.0000993     0.466986    29.977692    68137.626   0.52599426    30.865508 
 2946000   0.99200956   0.55350868    29.968618    68131.415   0.52604221    31.020831 
 2948000   0.99713302   0.55988171    29.972843     68120.26   0.52612835    31.036997 
 2950000   0.99313086    0.4215197    29.969497    68117.762   0.52614764     30.77064 
 2952000   0.99090862   0.47918059    29.966108    68116.603    0.5261566    30.876826 
 2954000   0.99892544   0.52430594    29.972971    68109.085   0.52621467    30.969344 
 2956000   0.99421835   0.48245592    29.968273    68096.227   0.52631403    30.884942 
 2958000   0.99406722    0.5676489    29.970672     68088.55   0.52637338    31.049087 
 2960000   0.99118055   0.46674274    29.965612    68086.909   0.52638606    30.852305 
 2962000   0.99274625   0.50728924    29.966305     68088.24   0.52637578    30.930045 
 2964000   0.99153452   0.46793627    29.969619    68087.995   0.52637767    30.858593 
 2966000   0.99405536   0.51320856    29.966533    68079.129   0.52644622    30.941388 
 2968000   0.99372132   0.48668267    29.962707    68078.854   0.52644835    30.887172 
 2970000    0.9869769   0.53320421    29.957391    68079.861   0.52644056    30.970239 
 2972000   0.98643957   0.53370468    29.952367    68066.773   0.52654178     30.96597 
 2974000   0.99362488   0.51670491    29.958609    68058.568   0.52660526    30.939809 
 2976000   0.98912816   0.49500549    29.961731    68060.298   0.52659187    30.901749 
 2978000   0.99664894   0.53776923    29.961927    68057.947   0.52661007    30.983118 
 2980000   0.99240882   0.48124112      29.9715    68062.275   0.52657658    30.885405 
 2982000    0.9950743    0.4689195    29.975188    68056.637   0.52662021     30.86562 
 2984000   0.99703029   0.53577959    29.975794    68059.647   0.52659691    30.993231 
 2986000   0.99352201   0.47051743    29.969003    68055.328   0.52663033    30.862452 
 2988000   0.99266602    0.5087179    29.972006    68058.701   0.52660424    30.938041 
 2990000    0.9979464    0.4923637    29.979677     68056.38   0.52662219    30.914624 
 2992000   0.99462591   0.47470896    29.973303    68054.176   0.52663925    30.874696 
 2994000    0.9944569   0.46277079    29.968287    68056.464   0.52662154    30.847041 
 2996000   0.99824076   0.53052458    29.975828    68055.903   0.52662589    30.983231 
 2998000    1.0027088   0.54338394    29.973057    68058.417   0.52660643    31.004917 
 3000000   0.99492769   0.50071836    29.972283    68068.566   0.52652791    30.923265 
 3002000    1.0021739   0.55618887    29.983094    68082.917   0.52641693    31.039649 
 3004000    1.0090193    0.4955132    29.986896    68097.684   0.52630278    30.928394 
 3006000    1.0102203   0.47183347    29.994064    68110.193   0.52620611    30.890734 
 3008000    1.0086523    0.5294766    29.985082    68122.544   0.52611071     30.99148 
 3010000   0.99664458   0.52622697    29.976007    68129.125   0.52605989    30.976324 
 3012000    1.0010721   0.52721632    29.981793    68129.202   0.52605929    30.983992 
 3014000    1.0042352   0.51984757    29.978599    68140.819   0.52596961     30.96696 
 3016000      0.99895   0.52629842    29.975032    68144.828   0.52593867    30.975716 
 3018000    1.0008569   0.47208781    29.980914    68148.215   0.52591253    30.878569 
 3020000   0.99925809   0.47930937    29.978887    68153.118   0.52587469    30.890338 
 3022000    1.0038149   0.48591604    29.983977    68158.812   0.52583076    30.908069 
 3024000   0.99951077   0.44869696    29.983168    68158.959   0.52582962    30.836481 
 3026000    1.0024469   0.54677274    29.980908    68167.846   0.52576108    31.020872 
 3028000    1.0039503   0.50964419    29.982913    68170.556   0.52574018    30.952297 
 3030000    1.0046828   0.51684234    29.980156    68180.615   0.52566261    30.963376 
 3032000    1.0019556   0.54908088    29.981941    68174.774   0.52570765    31.026401 
 3034000    1.0038416   0.47402914    29.990562    68177.494   0.52568668    30.892295 
 3036000    1.0002089   0.51511829    29.986856    68176.236   0.52569637    30.966734 
 3038000    1.0039247   0.49742348    29.986966    68175.497   0.52570208    30.933174 
 3040000   0.99821861   0.54059703    29.985186    68176.209   0.52569658     31.01353 
 3042000    1.0005462   0.57159565     29.98296    68182.801   0.52564576    31.070376 
 3044000   0.99984989   0.46016155    29.984709    68181.592   0.52565508    30.860115 
 3046000    1.0030463   0.58655619    29.981849    68173.854   0.52571474     31.09758 
 3048000   0.99864894   0.45570764    29.982421    68173.647   0.52571634    30.849253 
 3050000   0.99964434   0.48933289    29.979743      68173.4   0.52571824    30.910532 
 3052000   0.99907729   0.43639697    29.981516    68164.206   0.52578915    30.811501 
 3054000    1.0041944   0.51360206     29.98619    68159.727    0.5258237    30.962947 
 3056000    1.0034364   0.46825287    29.984024    68160.764    0.5258157     30.87455 
 3058000   0.99979709   0.50815409    29.980483     68157.07    0.5258442    30.946842 
 3060000    1.0012879   0.48749678    29.982159    68159.265   0.52582727    30.909263 
 3062000    1.0013064   0.49501916    29.982732    68156.342   0.52584981    30.924102 
 3064000   0.99790407   0.51536533    29.983694     68157.19   0.52584328    30.963768 
 3066000    1.0058468   0.51236526    29.980322    68150.539    0.5258946    30.954596 
 3068000   0.99975111   0.56462116     29.97964     68138.48   0.52598767     31.05309 
 3070000   0.99953716   0.53010133    29.984827    68132.068   0.52603717    30.992553 
 3072000    1.0036897   0.47742656    29.981519    68130.057   0.52605269    30.889083 
 3074000   0.99945521   0.50750165    29.979268     68134.49   0.52601847    30.944066 
 3076000    1.0043004   0.50357262    29.985546    68140.395   0.52597289    30.942958 
 3078000     1.006259   0.53972125    29.988626    68147.281   0.52591974    31.014869 
 3080000    1.0039818   0.47501667    29.991944    68155.611   0.52585546    30.895266 
 3082000   0.99935376    0.4039596    29.988291    68169.868   0.52574548    30.756647 
 3084000    1.0002688    0.5186998    29.983286    68166.008   0.52577525    30.969829 
 3086000   0.99774236   0.49108091    29.983933    68168.684   0.52575461    30.917983 
 3088000   0.99668425   0.50667691    29.981868    68167.589   0.52576306    30.945566 
 3090000   0.99368628   0.45367489     29.98066    68167.408   0.52576446    30.843547 
 3092000   0.99412173   0.54636672    29.977545    68166.986   0.52576771    31.016724 
 3094000   0.99960297   0.48695306    29.980753    68168.608   0.52575519     30.90695 
 3096000   0.99678243   0.47631957     29.97787    68159.898   0.52582238    30.883726 
 3098000   0.99765693   0.48028693     29.97361    68166.162   0.52577406    30.887096 
 3100000   0.99550912   0.52390444    29.978424     68156.96   0.52584505    30.974733 
 3102000     1.001075   0.48509561    29.977816    68165.999   0.52577532    30.900445 
 3104000   0.99868542   0.46350126    29.971633    68163.925   0.52579132    30.853164 
 3106000   0.99034101   0.51592058    29.966454    68157.692    0.5258394    30.947592 
 3108000    1.0014042   0.54160806    29.978894     68157.76   0.52583887    31.008882 
 3110000     0.996209   0.52714989    29.974702    68159.717   0.52582378    30.977224 
 3112000   0.99977864   0.55961566    29.976131    68147.407   0.52591876    31.040203 
 3114000   0.99877024   0.52676721    29.981273    68145.893   0.52593045    30.982864 
 3116000    0.9999338   0.48559484    29.981494    68146.754    0.5259238    30.904812 
 3118000    1.0029351   0.49975783    29.976777    68143.461   0.52594922    30.926978 
 3120000    1.0000722   0.47753329    29.987698    68148.881   0.52590738    30.895716 
 3122000    1.0019817   0.51706083    29.977182    68162.351   0.52580346    30.960555 
 3124000     1.007881   0.49427875    29.982842    68160.044   0.52582126    30.922855 
 3126000    1.0032138   0.52681684    29.983303    68159.626   0.52582448    30.985191 
 3128000    1.0013781    0.4656109    29.981756    68174.779    0.5257076     30.86744 
 3130000    1.0002588   0.49299099     29.98321    68169.722   0.52574661    30.920906 
 3132000   0.99895489   0.52470949    29.972452     68167.94   0.52576035    30.970453 
 3134000   0.99650877   0.54214699    29.981699    68158.557   0.52583273    31.012725 
 3136000     1.003009   0.45362996    29.986763    68156.187   0.52585101    30.849422 
 3138000   0.99722574   0.49336079    29.984236    68162.822   0.52579982    30.922541 
 3140000   0.99890619   0.52055983    29.987385    68152.279   0.52588116    30.977266 
 3142000    1.0038834    0.4985898    29.988687    68154.368   0.52586505     30.93682 
 3144000    1.0087017   0.53389196    29.996387    68157.992   0.52583709    31.011705 
 3146000    1.0023954   0.51765109    29.995675    68166.869   0.52576861    30.980236 
 3148000    1.0062299    0.5357862    29.999811     68171.26   0.52573475     31.01893 
 3150000    1.0062539   0.48918771    29.998701    68178.753   0.52567697    30.929287 
 3152000    1.0097751   0.48267562    30.000204     68183.59   0.52563967    30.918467 
 3154000    1.0087182    0.4829726    30.000498    68185.046   0.52562845    30.919346 
 3156000    1.0028784   0.52248794    29.995763    68188.726   0.52560008    30.989842 
 3158000    1.0058297   0.42778508    29.990944    68186.611   0.52561638    30.804817 
 3160000    1.0001382   0.48551502    29.980649    68180.666   0.52566222    30.904275 
 3162000   0.99688929   0.41120898    29.980317    68181.084   0.52565899     30.76259 
 3164000      1.00395    0.4823936    29.986203    68184.035   0.52563624    30.903935 
 3166000   0.99819911   0.55911689    29.971851    68182.948   0.52564463     31.03553 
 3168000    0.9912175   0.46274833     29.98133    68181.707   0.52565419    30.861658 
 3170000   0.99630254   0.47838529    29.974889    68176.864   0.52569153    30.884901 
 3172000   0.99233139   0.50183407    29.976075    68171.909   0.52572974    30.930622 
 3174000   0.99934906   0.47967132    29.971334    68161.894   0.52580698    30.883592 
 3176000    1.0004525    0.5152877     29.96867     68157.37   0.52584189    30.948599 
 3178000   0.99443362   0.52992963     29.96905    68148.554   0.52590991    30.976693 
 3180000   0.99530509   0.46959086    29.969307    68145.871   0.52593062    30.862183 
 3182000   0.99707583   0.50448383    29.971779    68145.707   0.52593189    30.930998 
 3184000   0.99315162   0.48284224    29.972697    68144.926   0.52593791    30.890757 
 3186000    0.9994501   0.50438557    29.976374    68149.666   0.52590133    30.935462 
 3188000   0.99455884   0.53447302    29.978889    68155.039   0.52585987    30.995268 
 3190000   0.99830881   0.57067694    29.978525    68160.059   0.52582114    31.063831 
 3192000    1.0035317   0.48663861    29.982651     68159.78   0.52582329     30.90813 
 3194000   0.99948528    0.4738924    29.977622    68164.673   0.52578555    30.878925 
 3196000    1.0065023   0.46902897    29.984672    68168.607    0.5257552    30.876778 
 3198000    1.0028006   0.49447128    29.985417    68162.531   0.52580207     30.92583 
 3200000     1.003039   0.54671773    29.984555     68168.13   0.52575889    31.024419 
 3202000    1.0015376   0.55300891    29.976037    68168.158   0.52575867    31.027867 
 3204000    1.0006097   0.49616306    29.979929    68163.099   0.52579769    30.923567 
 3206000   0.99727497   0.49106721    29.979466    68164.941   0.52578348    30.913438 
 3208000   0.99857027   0.41631186    29.985652    68168.359   0.52575712    30.777485 
 3210000    1.0017379     0.493132    29.973001    68177.644   0.52568551    30.911075 
 3212000    1.0028687   0.48610355    29.974345    68177.425    0.5256872    30.899046 
 3214000   0.99741557   0.50858934     29.96999    68174.398   0.52571055    30.937423 
 3216000    0.9990392   0.53263159    29.967865    68167.375   0.52576471    30.980926 
 3218000   0.99337643   0.46585832    29.971077    68162.046   0.52580582    30.857066 
 3220000   0.99335067   0.48435554    29.968409    68156.137    0.5258514    30.889497 
 3222000   0.99205886   0.50349798    29.973004     68148.46   0.52591064    30.930387 
 3224000   0.99559365   0.50363415    29.971637    68142.963   0.52595307    30.929201 
 3226000   0.99297133   0.49071972    29.966479    68135.364   0.52601172    30.899386 
 3228000   0.99469415   0.45096929     29.96923    68124.453   0.52609597     30.82643 
 3230000   0.99182493   0.51952426    29.960843    68123.591   0.52610262    30.948339 
 3232000   0.99306788   0.45584757    29.961103    68131.914   0.52603836    30.827671 
 3234000   0.99292277   0.52380027    29.959715    68122.484   0.52611117    30.955322 
 3236000   0.99182706   0.54467824    29.954624    68117.162   0.52615228    30.989835 
 3238000    0.9897322   0.45292922    29.959963    68105.594   0.52624164     30.82065 
 3240000   0.99627332   0.44021301    29.968768    68097.891   0.52630117    30.805196 
 3242000     1.004019   0.48704525    29.974695    68090.325   0.52635966    30.900004 
 3244000    1.0003823    0.4915862    29.969833    68087.337   0.52638276    30.903728 
 3246000   0.99972988   0.54221314    29.966256    68088.726   0.52637201    30.996351 
 3248000   0.99133148   0.48470106    29.964747    68092.835   0.52634026    30.885636 
 3250000    0.9926197   0.52184152    29.966296    68082.741   0.52641829    30.957602 
 3252000   0.99461037   0.54934192    29.961604    68082.573   0.52641958    31.005148 
 3254000   0.99935563   0.42673168    29.970913    68071.752   0.52650327    30.781415 
 3256000   0.98639921   0.55452038    29.961242    68075.512   0.52647419    31.014514 
 3258000    0.9949272   0.54489538    29.961585    68077.643   0.52645771    30.996607 
 3260000    0.9966254   0.46618937    29.972181    68080.581   0.52643499    30.857741 
 3262000   0.98954295   0.51841077    29.965105    68072.287   0.52649913    30.949743 
 3264000    1.0031433    0.4729793     29.97141    68073.738   0.52648791    30.869777 
 3266000    1.0006176   0.50849398    29.976616    68071.748    0.5265033     30.94241 
 3268000   0.99473013   0.48469332     29.97416    68070.989   0.52650917    30.894739 
 3270000    1.0045015   0.45209447    29.979056    68079.982   0.52643962    30.837834 
 3272000    1.0011452   0.52114478    29.984219    68087.591   0.52638079    30.974272 
 3274000    1.0046909   0.50243153    29.990403    68092.847   0.52634016    30.944979 
 3276000     1.002172   0.52491413    29.989958    68102.501   0.52626555     30.98739 
 3278000    1.0042452    0.4776321    29.990236    68113.121    0.5261835    30.897966 
 3280000    1.0057735   0.46057796    29.993952    68121.961   0.52611521    30.869384 
 3282000    1.0055914   0.57016985    29.985168    68132.547   0.52603347    31.069072 
 3284000    1.0115396   0.53693993    29.994055      68151.6   0.52588641    31.015074 
 3286000    1.0007886   0.49100502    29.987143    68154.938   0.52586065     30.92086 
 3288000     1.006157   0.49465813    29.989669    68161.317   0.52581143    30.930421 
 3290000    1.0029907   0.46938588    29.985474    68164.571   0.52578634    30.878205 
 3292000    1.0069377   0.50970713    29.986727    68182.076   0.52565134    30.956394 
 3294000    1.0035069   0.48881007    29.986996    68188.459   0.52560214    30.916996 
 3296000    1.0053878    0.4706654    29.993315    68200.618   0.52550844    30.888953 
 3298000    1.0092169   0.47714087    29.996619    68208.939   0.52544433    30.904691 
 3300000    1.0109577   0.51698356    29.999132    68213.062   0.52541256    30.983089 
 3302000    1.0052425   0.50919423    29.991585    68223.345   0.52533337    30.960863 
 3304000    1.0122374   0.48011553     29.99765    68228.018   0.52529739    30.911638 
 3306000    1.0097586   0.45076288    29.991488    68246.236   0.52515717    30.849827 
 3308000    1.0019968   0.52798471    29.988773    68238.951   0.52521323     30.99405 
 3310000    1.0015875    0.4950953    29.979516    68233.089   0.52525835    30.922091 
 3312000    1.0016139   0.54253488    29.978283    68238.209   0.52521894    31.011252 
 3314000   0.99666048   0.49303954     29.97252    68235.179   0.52524227     30.91121 
 3316000   0.99268395    0.4923155    29.971233    68240.414   0.52520197    30.908616 
 3318000   0.99350671   0.52625962    29.969625    68234.125   0.52525038    30.971547 
 3320000    1.0011725   0.49185084    29.975433    68227.699   0.52529985    30.911757 
 3322000    1.0036067   0.49120418    29.973853    68219.831   0.52536043    30.908838 
 3324000    1.0046284   0.48523655    29.976404    68226.053   0.52531253    30.900114 
 3326000   0.99463061   0.44888154    29.976847    68220.545   0.52535493    30.831282 
 3328000    1.0037558   0.50424038    29.985956    68229.128   0.52528885    30.945886 
 3330000   0.99883264   0.50468681    29.980854    68237.635   0.52522336    30.941753 
 3332000     1.001678   0.49048658      29.9767    68226.904   0.52530597    30.910416 
 3334000   0.99666327    0.5047686    29.977822    68223.769   0.52533011    30.938682 
 3336000   0.99624533   0.46327639    29.972071    68219.392   0.52536382    30.853891 
 3338000   0.99391433   0.57465636    29.970024    68206.757   0.52546114    31.063647 
 3340000   0.99829551    0.5616333     29.97477    68206.479   0.52546327    31.043604 
 3342000   0.99757013   0.48664565    29.977648    68197.294   0.52553404     30.90365 
 3344000   0.99511125   0.52510519    29.971949    68189.957    0.5255906    30.971026 
 3346000   0.99776918   0.43059236    29.977208    68179.352   0.52567235    30.796335 
 3348000   0.99772357   0.46143063    29.977008    68167.629   0.52576275    30.854648 
 3350000   0.99200502    0.5052497    29.969022    68161.296    0.5258116    30.929917 
 3352000    1.0000866   0.47902921    29.972376    68160.502   0.52581772    30.883394 
 3354000   0.99770641   0.52754253    29.969268    68157.882   0.52583793    30.972509 
 3356000     1.001812   0.57944736    29.972354    68162.814   0.52579989    31.074384 
 3358000    0.9973702   0.49744871    29.974965    68165.603   0.52577837    30.921083 
 3360000   0.99984226   0.47448261    29.977987    68164.459    0.5257872    30.880411 
 3362000    1.0017563   0.50682801     29.98535     68164.14   0.52578966    30.949287 
 3364000    1.0015086   0.53065645    29.981589    68175.731   0.52570027    30.991017 
 3366000    1.0054815   0.47015342    29.991989    68179.041   0.52567474     30.88637 
 3368000    1.0027027   0.46723838    29.988916    68190.082   0.52558963    30.877896 
 3370000    1.0068138   0.45265424    29.989373    68195.491   0.52554794    30.850673 
 3372000    1.0072428   0.52052538    29.993213    68196.757   0.52553819    30.983675 
 3374000    1.0017727   0.49875822    29.994846    68199.173   0.52551957    30.943923 
 3376000    1.0056975   0.57878025    29.992649    68203.295   0.52548781    31.094064 
 3378000    1.0063113   0.43078772     29.99522    68204.292   0.52548012    30.815018 
 3380000    1.0036961   0.45428441     29.98963    68215.157   0.52539643    30.854281 
 3382000   0.99707693    0.5131916    29.977869    68221.463   0.52534787     30.95473 
 3384000    1.0033171   0.51156293    29.985963    68219.666   0.52536171    30.959698 
 3386000     1.003001   0.50859456    29.973248    68213.144   0.52541194     30.94124 
 3388000   0.99922691   0.47859002    29.975435    68212.184   0.52541933    30.886307 
 3390000    0.9976855   0.49454712    29.980303     68203.96   0.52548268    30.921433 
 3392000    1.0008891   0.49972614    29.969505    68197.333   0.52553375    30.920398 
 3394000   0.99687393   0.53421784    29.973869    68190.227   0.52558851    30.990288 
 3396000   0.99698116   0.44673832    29.975252    68191.716   0.52557704    30.825248 
 3398000    1.0005022   0.53174372    29.973396    68186.899   0.52561416    30.985058 
 3400000   0.99910543   0.48843168    29.971976    68188.502   0.52560181    30.901256 
 3402000    1.0015939    0.4431674    29.977666    68187.469   0.52560977    30.820815 
 3404000   0.99910073   0.46031283    29.978671    68178.966   0.52567532     30.85433 
 3406000    1.0065384   0.51764946     29.97321    68173.668   0.52571618    30.957866 
 3408000    1.0038949   0.49274886    29.978697     68170.98    0.5257369    30.915951 
 3410000    1.0008183   0.52881881    29.979871    68173.572   0.52571692    30.985771 
 3412000   0.99684617   0.53938719    29.969213    68176.815   0.52569191    30.995265 
 3414000   0.99984142   0.47797393    29.973493    68173.666   0.52571619    30.882679 
 3416000    1.0028312   0.51910786    29.967149    68168.475   0.52575622    30.954504 
 3418000    1.0002903    0.5628718    29.973316     68163.24    0.5257966    31.043829 
 3420000    1.0015048     0.516735    29.978624    68170.801   0.52573829    30.961499 
 3422000   0.99693148    0.5075166    29.971796    68166.215   0.52577365    30.937072 
 3424000   0.99546107   0.45408435    29.972748    68170.755   0.52573864    30.836456 
 3426000   0.99407576    0.4791382    29.966208    68165.912     0.525776    30.877506 
 3428000   0.99444229   0.49028386    29.970531    68155.057   0.52585973    30.902878 
 3430000    1.0038848   0.49936378    29.971408    68151.805   0.52588483    30.920977 
 3432000     1.002645   0.51089843    29.973529    68160.103    0.5258208     30.94515 
 3434000     1.000135   0.49275477     29.97827    68161.304   0.52581154    30.915402 
 3436000   0.99259086   0.51111609    29.969668    68158.348   0.52583434    30.941678 
 3438000    1.0000486    0.5135477    29.977949    68153.958   0.52586821     30.95452 
 3440000    1.0023848   0.46565277    29.982236    68146.351   0.52592692     30.86763 
 3442000    1.0043656   0.49128817    29.974883    68151.579   0.52588657    30.909093 
 3444000    1.0031394   0.46612135    29.983105    68153.324   0.52587311    30.869482 
 3446000   0.99699012   0.52693958    29.975927    68151.146   0.52588991    30.977923 
 3448000   0.99473143   0.44259277    29.976052    68155.488   0.52585641    30.817713 
 3450000   0.99841232   0.49826595    29.972369    68149.125   0.52590551    30.919813 
 3452000    0.9932252   0.49759701    29.961118    68143.642   0.52594782    30.907214 
 3454000   0.99612794   0.49681852    29.964826    68130.318   0.52605068    30.909257 
 3456000   0.99735834   0.50345764    29.973421    68124.365   0.52609665    30.930389 
 3458000   0.99781917   0.53905609    29.978952    68133.829   0.52602357    31.003727 
 3460000     1.000854   0.46962046     29.98714    68134.893   0.52601535    30.879929 
 3462000    1.0011067   0.51515303    29.984399     68143.85   0.52594621    30.963878 
 3464000   0.99991707   0.57560586    29.977304    68144.961   0.52593764    31.071742 
 3466000   0.99936806   0.48247211    29.982417    68152.109   0.52588248    30.899869 
 3468000    1.0011096   0.46650158    29.985327    68160.107   0.52582077    30.872515 
 3470000    1.0011325    0.5485184    29.978484     68164.19   0.52578927    31.021713 
 3472000   0.99688843   0.51642438    29.988177    68163.024   0.52579827    30.970349 
 3474000    1.0026561   0.45382865     29.98172    68166.679   0.52577008    30.844889 
 3476000    1.0007556   0.54230957     29.98264    68172.241   0.52572718    31.014182 
 3478000    1.0001823   0.53032763      29.9871    68165.072   0.52578247    30.995744 
 3480000     1.005887   0.51564504    29.985359     68169.89   0.52574531    30.966148 
 3482000    1.0063742    0.5227948    29.980841    68171.007    0.5257367    30.975246 
 3484000   0.99736471   0.49777082     29.97632    68154.321   0.52586541    30.922895 
 3486000    1.0002984   0.51091168    29.978458    68151.811   0.52588478    30.949986 
 3488000   0.99658323   0.54843249     29.97738    68159.399   0.52582623    31.020372 
 3490000    1.0033453    0.4944953      29.9744    68160.447   0.52581815     30.91483 
 3492000   0.99655711   0.50145999    29.976496    68161.161   0.52581264    30.930182 
 3494000    0.9979765   0.52546491    29.973096    68157.602    0.5258401    30.972383 
 3496000     1.000625   0.47330066    29.973571    68154.463   0.52586431    30.873614 
 3498000    1.0064627   0.56010407    29.975746    68161.109   0.52581304    31.040961 
 3500000   0.99680798   0.47409415    29.977924    68166.023   0.52577513    30.879629 
 3502000     1.001515   0.50124349    29.986492    68166.263   0.52577328    30.939837 
 3504000    0.9997145   0.50921184    29.981168    68174.524   0.52570957    30.949786 
 3506000    1.0001315    0.5399615    29.986001    68174.311   0.52571121    31.013107 
 3508000    1.0029926   0.47559436    29.983706    68182.092   0.52565122    30.888478 
 3510000    1.0058303   0.53245738    29.990352    68192.271   0.52557276    31.003452 
 3512000    1.0038424   0.48496018    29.988304    68200.444   0.52550978    30.911141 
 3514000   0.99515146   0.51609844    29.980039    68196.243   0.52554214    30.962069 
 3516000     1.004462   0.50249521    29.977309    68203.133   0.52548906    30.933551 
 3518000   0.99837683   0.46136265    29.979869    68210.466   0.52543257    30.857932 
 3520000    1.0027781   0.54394885    29.974698    68213.524   0.52540901    31.009985 
 3522000   0.99569873   0.50360567    29.976805    68211.063   0.52542796    30.935272 
 3524000     1.000063   0.44917058    29.977614    68217.439   0.52537886    30.832561 
 3526000    1.0060782   0.51549818    29.973675     68223.52   0.52533203    30.954955 
 3528000   0.99876445    0.4917698    29.979984    68223.744    0.5253303      30.9161 
 3530000    1.0028304   0.52007603    29.979726     68221.33   0.52534889     30.96969 
 3532000    1.0002751   0.49725455    29.976278    68217.315   0.52537981    30.922744 
 3534000    1.0064137     0.444819    29.982555    68217.918   0.52537517    30.829224 
 3536000    1.0024982   0.55462071    29.980273    68219.374   0.52536396    31.035962 
 3538000    1.0061115   0.50750034    29.991932    68227.499   0.52530139    30.958045 
 3540000    1.0104464   0.47554944    29.983015    68232.011   0.52526665    30.888363 
 3542000    1.0059061   0.48213783    29.992575    68235.996   0.52523597     30.91052 
 3544000    1.0027771   0.51428926    29.986845    68235.485   0.52523991    30.965996 
 3546000    1.0017701   0.54484976    29.989949     68233.89   0.52525219     31.02726 
 3548000    1.0047363   0.56618179    29.985739    68238.671   0.52521539    31.063738 
 3550000    1.0070863   0.46511121    29.990174    68241.375   0.52519458    30.875772 
 3552000    1.0056588   0.46578991     29.99213    68242.805   0.52518357    30.879038 
 3554000    1.0043459   0.55051707    29.980571    68245.339   0.52516407    31.028847 
 3556000    1.0085485   0.44899281     29.98657    68251.704   0.52511509    30.841607 
 3558000    1.0058756   0.47481582    29.987481    68258.251   0.52506473    30.891781 
 3560000    1.0015858   0.48324221     29.97834    68266.751   0.52499935    30.898803 
 3562000    1.0051786   0.49221968    29.975835    68269.957    0.5249747    30.913441 
 3564000    1.0026059   0.55229941    29.970609    68260.934   0.52504409     31.02252 
 3566000   0.99910528   0.49502984    29.980407     68260.29   0.52504905    30.923233 
 3568000    1.0055226   0.48243915    29.979166    68253.022   0.52510496    30.897914 
 3570000    1.0055382    0.5267914    29.983838    68251.356   0.52511777    30.987026 
 3572000    1.0016474   0.54367973     29.98397    68250.267   0.52512615    31.019302 
 3574000    0.9963179   0.46856791    29.975755    68250.659   0.52512313    30.868056 
 3576000    1.0024798   0.43855768    29.984109    68240.866    0.5251985    30.819141 
 3578000    1.0020035   0.43931051    29.985399    68239.488    0.5252091    30.821847 
 3580000   0.99958898   0.56151175    29.971833     68239.87   0.52520616    31.040959 
 3582000   0.99688549   0.47357586    29.975621    68239.892   0.52520599    30.877316 
 3584000    0.9952273   0.52297512     29.97047    68235.745   0.52523791    30.966162 
 3586000    1.0007991   0.50490741    29.976147    68229.581   0.52528536    30.937353 
 3588000   0.99835829    0.4753838    29.980107    68227.067   0.52530471    30.885075 
 3590000    1.0040744   0.51672023    29.979852     68224.12    0.5253274    30.963468 
 3592000    1.0005172   0.42452008    29.975459    68223.994   0.52532837    30.783563 
 3594000   0.99615199   0.44536741    29.967242    68219.041   0.52536652    30.814969 
 3596000     1.004188   0.51320982    29.975838    68215.712   0.52539216     30.95265 
 3598000    0.9932416   0.49921323    29.972949    68212.243   0.52541887    30.923073 
 3600000   0.99365195   0.55718007    29.954695    68194.689   0.52555412    31.014872 
 3602000   0.99805835   0.48364076    29.965599    68184.082   0.52563588    30.885705 
 3604000    1.0021146   0.48112044    29.973156    68194.961   0.52555203    30.888613 
 3606000   0.99851636   0.46500877     29.97089     68194.02   0.52555928    30.855679 
 3608000    1.0023557   0.55804831    29.972841    68189.673   0.52559278    31.034591 
 3610000   0.99691829    0.5293912    29.973866    68188.646    0.5256007    30.981078 
 3612000    1.0010081    0.5041498     29.97585    68189.892   0.52559109    30.935056 
 3614000   0.99590783   0.53011253    29.971734    68191.161   0.52558131    30.980355 
 3616000    1.0004929   0.48299432    29.980201    68190.627   0.52558543    30.899166 
 3618000    1.0060498   0.48033796    29.987308    68200.888   0.52550635    30.901355 
 3620000    1.0091892   0.52350951    29.988184     68213.94   0.52540581    30.984575 
 3622000    1.0093865   0.53468451    29.986766    68218.112   0.52537367    31.004488 
 3624000    1.0038759   0.55218891    29.986463     68226.99    0.5253053     31.03764 
 3626000    1.0037609   0.46611928    29.980366    68230.458   0.52527861    30.867741 
 3628000      1.00158   0.47365555    29.971787    68237.947   0.52522096    30.873608 
 3630000   0.99762774   0.49956107    29.971226    68244.221   0.52517267    30.922458 
 3632000   0.99984138   0.46284787     29.97964    68237.233   0.52522646    30.860875 
 3634000    1.0029538   0.49852153    29.977038    68234.061   0.52525087    30.926149 
 3636000   0.99584113   0.47195137    29.977525     68223.78   0.52533002    30.875915 
 3638000    1.0048413   0.47851832    29.984269    68223.152   0.52533486    30.895152 
 3640000   0.99920978   0.54989083    29.981569    68219.123   0.52536588     31.02825 
 3642000   0.99406327   0.51209203    29.970133    68208.515   0.52544759    30.944716 
 3644000   0.99612463   0.45975115    29.974646    68190.846   0.52558374     30.84939 
 3646000    1.0031229   0.52480458    29.982402     68199.32   0.52551843    30.981043 
 3648000   0.99926508   0.45501025    29.972409    68200.209   0.52551159    30.838252 
 3650000    0.9937266     0.526962    29.969379    68205.341   0.52547205    30.972214 
 3652000     1.004336    0.5493177    29.971304    68209.688   0.52543856     31.01675 
 3654000   0.99642225   0.45303765    29.980846    68203.906    0.5254831    30.842982 
 3656000    1.0000878   0.45901407    29.981865      68197.8   0.52553015    30.855296 
 3658000      1.00226    0.5428952    29.978331    68198.573    0.5255242    31.011386 
 3660000     1.003036   0.45996887    29.983725    68210.333   0.52543359    30.859133 
 3662000    1.0004409   0.49230737    29.976732    68217.453   0.52537875    30.913784 
 3664000   0.99860586   0.49740638    29.973099    68215.169   0.52539634    30.919825 
 3666000    1.0028635   0.45634746    29.987208    68215.392   0.52539462    30.855788 
 3668000    1.0051609   0.57697336    29.989065    68211.951   0.52542112    31.087181 
 3670000   0.99878769   0.52008228    29.976471     68222.53   0.52533965    30.966464 
 3672000    1.0063858   0.54678001    29.977445    68221.102   0.52535065    31.018235 
 3674000      1.00688      0.50805    29.986447    68220.837   0.52535269    30.953511 
 3676000    1.0029766   0.46636448    29.980776    68232.529   0.52526266    30.868646 
 3678000    1.0030219    0.5282659     29.97866    68235.047   0.52524328    30.984414 
 3680000    1.0000731    0.4700401    29.983862     68235.88   0.52523687    30.878772 
 3682000   0.99932564   0.47331029    29.977779    68220.433   0.52535579    30.878712 
 3684000   0.99834231   0.51724901    29.979136    68220.035   0.52535886    30.963699 
 3686000    1.0112078   0.47837846    29.986012    68222.956   0.52533637    30.896625 
 3688000   0.99989511   0.41465828    29.981463    68226.601   0.52530831    30.770825 
 3690000    1.0055207   0.40324357    29.981611    68230.115   0.52528125    30.749282 
 3692000    1.0050059   0.50094084    29.977638    68232.825   0.52526038    30.931338 
 3694000    1.0008113    0.5540961    29.973938    68231.913   0.52526741    31.028822 
 3696000    1.0018532   0.48312624     29.98203    68228.385   0.52529457    30.901754 
 3698000    0.9966669    0.5045532      29.9824    68229.048   0.52528947    30.942924 
 3700000   0.99887337   0.48409756    29.976313    68220.432   0.52535581    30.897779 
 3702000   0.99975842   0.52409931    29.972196    68220.569   0.52535475    30.969806 
 3704000    0.9966198   0.45629052    29.974411    68217.012   0.52538214    30.842903 
 3706000   0.99054606   0.45982805    29.970519    68206.403   0.52546386    30.845609 
 3708000    1.0023951   0.51019777    29.973955    68203.212   0.52548845    30.944857 
 3710000   0.99359197   0.48170277     29.96899    68201.303   0.52550316     30.88564 
 3712000    1.0001142   0.46301247    29.968933     68200.19   0.52551173    30.850003 
 3714000   0.99695879   0.51871614    29.970477    68198.417   0.52552539     30.95752 
 3716000   0.99623635   0.47369285    29.965928    68194.463   0.52555587    30.867246 
 3718000    1.0032224   0.55783187    29.969956     68191.18   0.52558117    31.031318 
 3720000   0.99694623   0.56087059    29.966691    68183.429   0.52564091    31.033713 
 3722000    1.0016056   0.45657398    29.970422    68171.581   0.52573227    30.838875 
 3724000    0.9954734   0.51564327    29.969338    68158.846    0.5258305    30.949965 
 3726000    1.0014854   0.46653651    29.974455    68165.689   0.52577771    30.861782 
 3728000    0.9996275   0.50197772    29.976739    68167.024   0.52576742    30.931491 
 3730000    1.0043977   0.48634023    29.976187    68169.748    0.5257464    30.901234 
 3732000     1.000503   0.47130846    29.972697    68175.432   0.52570257    30.869228 
 3734000   0.99880618     0.504262    29.973879    68174.234   0.52571181    30.933077 
 3736000   0.99529065   0.55856022    29.966354    68181.929   0.52565248    31.028958 
 3738000    1.0029593   0.53858617    29.965621     68181.06   0.52565918    30.990213 
 3740000   0.99828286   0.48700596    29.974929    68179.226   0.52567332    30.901372 
 3742000   0.99197657   0.49519369    29.971332    68169.549   0.52574794    30.913217 
 3744000   0.99648304   0.48945709     29.97158    68164.533   0.52578663    30.902484 
 3746000   0.99486647   0.48923669     29.96721     68163.84   0.52579198    30.897686 
 3748000    1.0031295   0.50501305    29.974106    68170.886   0.52573763    30.934686 
 3750000   0.99810922   0.43234576    29.972881    68180.431   0.52566403    30.795357 
 3752000   0.99784157   0.41847415     29.97004    68182.524   0.52564789    30.766151 
 3754000     1.004082   0.52582451    29.975311    68185.534   0.52562469    30.975691 
 3756000   0.99769685   0.56258381    29.977856    68171.618   0.52573199    31.047952 
 3758000    0.9965757   0.44869176    29.975017    68177.115    0.5256896    30.828547 
 3760000   0.99830433   0.48826584    29.974081    68169.404   0.52574906    30.902786 
 3762000   0.99697037   0.55581339    29.975073    68176.398   0.52569513    31.032365 
 3764000     1.004104   0.50431656    29.979479    68176.985    0.5256906    30.938821 
 3766000   0.99931216    0.4883993    29.974382    68185.837   0.52562235    30.903565 
 3768000   0.99791961   0.49137397    29.975342    68186.751   0.52561531    30.910196 
 3770000    1.0013182     0.459739    29.976798    68192.429   0.52557154    30.851539 
 3772000   0.99647978   0.52164653    29.970859    68187.997    0.5256057    30.963327 
 3774000    1.0012617   0.51422857    29.978154    68195.617   0.52554697    30.956617 
 3776000    1.0025171   0.53413785    29.974222    68193.266   0.52556509    30.990534 
 3778000   0.99967749   0.51500621    29.972547    68203.701   0.52548468    30.952607 
 3780000   0.99462736   0.51651124    29.968105    68207.861   0.52545263    30.951089 
 3782000   0.99616181   0.56397877    29.966611    68205.663   0.52546956    31.039896 
 3784000   0.99334499   0.50817452    29.967528     68209.85   0.52543731    30.934674 
 3786000   0.99124776   0.55150531    29.966841    68199.921    0.5255138      31.0163 
 3788000    1.0001958   0.57733175    29.968666    68202.144   0.52549667    31.067306 
 3790000   0.99254877   0.49302575    29.967467    68202.282   0.52549561    30.905678 
 3792000   0.99719206   0.49443705    29.972421    68203.908   0.52548308     30.91334 
 3794000   0.99221203   0.49488114    29.964043    68201.174   0.52550415    30.905769 
 3796000   0.99654653   0.52515135    29.963578     68195.33   0.52554918    30.962821 
 3798000    0.9955828   0.50723852     29.96657    68197.934   0.52552912    30.931766 
 3800000   0.99543622    0.5252008    29.973811    68195.727   0.52554613    30.973154 
 3802000   0.99622611   0.47427129     29.96736     68184.83   0.52563012    30.869651 
 3804000   0.99638083   0.44605891    29.972439    68178.125   0.52568181    30.820973 
 3806000    1.0008271   0.49754909    29.973985    68164.008   0.52579068    30.920272 
 3808000    1.0032034   0.55326786    29.974189    68174.363   0.52571082    31.026608 
 3810000   0.99812754   0.51813253    29.976419     68178.24   0.52568092     30.96206 
 3812000    1.0052184   0.54775566     29.98327    68172.495   0.52572522    31.025175 
 3814000    1.0044293   0.48090086    29.979908    68174.718   0.52570808    30.894676 
 3816000    1.0041572   0.54792188    29.981789    68179.544   0.52567086    31.024118 
 3818000   0.99870855   0.49339651    29.979226    68175.857   0.52569929    30.917779 
 3820000    1.0039694   0.48872984    29.984625     68186.52   0.52561709    30.914446 
 3822000   0.99422691   0.46370644    29.976149    68187.852   0.52560682    30.858379 
 3824000    0.9971992   0.48359771    29.970521    68182.331   0.52564938    30.890521 
 3826000   0.99632491   0.50730417    29.971429    68176.074   0.52569762    30.936441 
 3828000    0.9982721   0.49753201    29.963237    68186.059   0.52562064    30.909798 
 3830000   0.99932374   0.55955301    29.973045    68195.174   0.52555038    31.037744 
 3832000   0.99837422   0.48567554    29.976423    68191.228    0.5255808    30.900497 
 3834000    1.0014088   0.49391683    29.979411    68190.655   0.52558521    30.919157 
 3836000    1.0010659   0.52204716    29.976314    68187.734   0.52560773    30.969539 
 3838000   0.99321362   0.49666184    29.967299    68183.452   0.52564074    30.912169 
 3840000    1.0014102   0.51088485    29.966125    68185.591   0.52562424    30.938083 
 3842000   0.99849943   0.47642237    29.977201     68184.33   0.52563397    30.883577 
 3844000    1.0013071   0.50775261    29.978477    68179.676   0.52566985    30.944392 
 3846000    1.0004752   0.47122452    29.971683    68184.787   0.52563045    30.868177 
 3848000    0.9976081   0.50051465    29.969633     68189.39   0.52559497    30.921915 
 3850000   0.99636123   0.45558736    29.972658    68180.013   0.52566725    30.839342 
 3852000    0.9983302   0.47479233    29.979823    68177.408   0.52568733    30.883007 
 3854000    1.0013816    0.5011099    29.976776    68182.522   0.52564791    30.930095 
 3856000    1.0031692   0.50768363    29.977869    68187.178   0.52561201    30.943759 
 3858000    1.0024907   0.52754899    29.978553    68188.353   0.52560296    30.982256 
 3860000    1.0024436   0.43724515    29.970419    68185.469   0.52562519    30.802276 
 3862000    1.0042918   0.57299527    29.973086    68184.285   0.52563431    31.063189 
 3864000   0.99350991   0.49471235    29.970876    68185.537   0.52562467    30.912066 
 3866000   0.99518613    0.5737867    29.965231     68176.54   0.52569403    31.056715 
 3868000   0.99258209   0.56120404    29.962478    68166.748   0.52576955    31.029873 
 3870000   0.99329502   0.48659027    29.962183    68161.287   0.52581167    30.887591 
 3872000   0.99124652   0.55353207    29.965121    68153.083   0.52587497    31.017713 
 3874000   0.99168821   0.54618765    29.967473    68145.591   0.52593278    31.005986 
 3876000   0.99333689    0.5137271    29.965414    68146.037   0.52592934    30.942212 
 3878000   0.99716795   0.51063323    29.963945    68145.839   0.52593086    30.934858 
 3880000    1.0035821   0.49683744    29.971765    68142.814   0.52595421    30.916405 
 3882000    1.0038461     0.539192    29.977112    68148.309    0.5259118    31.002364 
 3884000    1.0072119   0.56375039      29.9825    68146.039   0.52592932    31.054413 
 3886000    1.0000595   0.46103752    29.979999    68147.019   0.52592176    30.856626 
 3888000    1.0074848   0.50593934    29.982184    68159.391   0.52582629    30.944363 
 3890000    1.0028341   0.47576756    29.980228    68165.284   0.52578084    30.885107 
 3892000     1.002282   0.44998032    29.983787    68182.338   0.52564933    30.839834 
 3894000    1.0004529   0.56148803    29.985301    68185.864   0.52562214    31.053536 
 3896000    1.0039419    0.5455951    29.986744     68191.98   0.52557501    31.024836 
 3898000   0.99780576   0.49667983    29.981371    68196.824   0.52553767     30.92646 
 3900000    1.0064752   0.48741874    29.987824     68195.94   0.52554449    30.915278 
 3902000    1.0024062   0.52106731     29.98463    68206.658    0.5254619    30.976267 
 3904000    1.0042164   0.49743046    29.978659    68215.837   0.52539119     30.92544 
 3906000   0.99894175   0.55192165    29.976648    68216.817   0.52538365     31.02716 
 3908000    1.0057819   0.48544758    29.975475    68210.206   0.52543457    30.899372 
 3910000    1.0006392   0.51257207    29.975076    68215.117   0.52539674    30.950666 
 3912000   0.99687397   0.53112217    29.975699    68210.004   0.52543612     30.98652 
 3914000   0.99971159   0.55684347    29.973236    68219.037   0.52536655     31.03315 
 3916000   0.99491302   0.53216547     29.97013      68210.4   0.52543307    30.982943 
 3918000   0.99924791    0.5236716    29.971425    68215.611   0.52539294    30.968148 
 3920000   0.99863049   0.48600169    29.974841    68215.787   0.52539158    30.899868 
 3922000    1.0061319   0.52639805    29.975253    68223.395   0.52533299     30.97728 
 3924000    1.0001592   0.48196661    29.975629    68225.859   0.52531401    30.893112 
 3926000   0.99925671   0.49312566    29.979978    68224.135   0.52532729     30.91868 
 3928000    1.0026279     0.549753    29.980779    68221.829   0.52534505     31.02724 
 3930000      1.00024    0.4973382    29.980409    68217.683   0.52537697    30.927041 
 3932000    1.0016649    0.4444885     29.97824    68210.774   0.52543019    30.824192 
 3934000   0.99727783   0.46181526     29.97689    68210.838    0.5254297    30.855818 
 3936000   0.99744765   0.52789935    29.977335    68209.345    0.5254412    30.982013 
 3938000   0.99837383   0.49702907    29.970573    68210.883   0.52542935    30.916522 
 3940000     0.997092    0.5133029    29.969543    68207.504   0.52545538    30.946416 
 3942000   0.99744507   0.49979097    29.964426    68198.903   0.52552165    30.915464 
 3944000   0.99239439   0.54511012    29.963862    68198.195    0.5255271    31.001125 
 3946000   0.99324008   0.48431439    29.966028    68195.017   0.52555159    30.887564 
 3948000    1.0031348   0.43388505    29.965931    68195.152   0.52555055    30.791513 
 3950000   0.99544985    0.4945064     29.96658    68189.439   0.52559458    30.907431 
 3952000    1.0021319   0.47546057    29.974179    68181.238    0.5256578    30.878685 
 3954000    1.0009326   0.55581685    29.976857    68190.899   0.52558333    31.034381 
 3956000     1.000775    0.5394936     29.97087    68194.611   0.52555472    30.997392 
 3958000   0.99952456   0.53283665    29.975551      68192.7   0.52556945    30.989378 
 3960000   0.99828501   0.44034532     29.97227    68184.469    0.5256329    30.810013 
 3962000      1.00341   0.49661518    29.972866    68177.952   0.52568314     30.91757 
 3964000     1.001381   0.52334637    29.969689    68182.727   0.52564633    30.965314 
 3966000    1.0037793   0.50839913    29.980322    68185.007   0.52562875    30.947543 
 3968000     1.006035   0.52670385    29.976663    68190.502    0.5255864    30.978789 
 3970000    1.0050351   0.50103043    29.974245    68200.618   0.52550843    30.927666 
 3972000    1.0054246   0.49013709     29.97355    68198.841   0.52552213    30.906217 
 3974000    1.0010368   0.49223911    29.978305    68190.573   0.52558585    30.914859 
 3976000    1.0005792   0.51520423     29.98104    68192.771   0.52556891    30.961319 
 3978000    1.0025042   0.49978167    29.974938    68194.024   0.52555925     30.92589 
 3980000    1.0023114   0.50024799    29.979172    68196.343   0.52554138    30.931044 
 3982000   0.99992828   0.48564406    29.979049    68202.981   0.52549023    30.903223 
 3984000    1.0009295   0.53919608    29.973515    68202.492   0.52549399     30.99959 
 3986000   0.99677924   0.47890797    29.970296    68193.038   0.52556685    30.881518 
 3988000   0.99708773   0.55011633    29.972715    68189.416   0.52559477     31.01937 
 3990000   0.99893811   0.47147167    29.977378    68193.703   0.52556172    30.874459 
 3992000   0.99912716   0.48458518    29.980562    68196.114   0.52554314    30.902628 
 3994000    1.0048953   0.52971948    29.975805    68202.339   0.52549517    30.983844 
 3996000    1.0045585    0.5124126    29.973643    68196.701   0.52553862    30.948667 
 3998000   0.99906065   0.49674941    29.979088    68194.569   0.52555504    30.924278 
 4000000   0.99980496   0.52521436    29.975462    68205.861   0.52546804    30.974979 
Loop time of 3550.31 on 32 procs for 2000000 steps with 35840 atoms

Performance: 243359.024 tau/day, 563.331 timesteps/s
99.9% CPU use with 32 MPI tasks x 1 OpenMP threads

MPI task timing breakdown:
Section |  min time  |  avg time  |  max time  |%varavg| %total
---------------------------------------------------------------
Pair    | 102.42     | 331.69     | 802.29     |1121.8 |  9.34
Bond    | 63.973     | 108.13     | 203.74     | 381.6 |  3.05
Neigh   | 405.04     | 407.17     | 410.09     |   6.7 | 11.47
Comm    | 518.16     | 984.87     | 1279.5     | 657.4 | 27.74
Output  | 1.2343     | 1.2362     | 1.2401     |   0.1 |  0.03
Modify  | 1542.2     | 1690.5     | 1916.3     | 248.9 | 47.62
Other   |            | 26.74      |            |       |  0.75

Nlocal:        1120.00 ave        1526 max         972 min
Histogram: 14 5 3 2 2 0 1 2 2 1
Nghost:        2545.50 ave        3062 max        2235 min
Histogram: 6 7 1 3 4 6 1 0 1 3
Neighs:        9655.53 ave       33916 max        2595 min
Histogram: 17 3 4 1 1 1 1 3 0 1

Total # of neighbors = 308977
Ave neighs/atom = 8.6210100
Ave special neighs/atom = 2.3459821
Neighbor list builds = 140192
Dangerous builds = 0
unfix 2

fix 2 all press/berendsen iso 0.75 0.75 $(1000*dt*5)
fix 2 all press/berendsen iso 0.75 0.75 25
run 2000000
Per MPI rank memory allocation (min/avg/max) = 11.58 | 11.67 | 11.71 Mbytes
Step Temp Press TotEng Volume Density Enthalpy 
 4000000   0.99980496   0.47788027     29.97546    68205.861   0.52546804    30.884898 
 4002000   0.99884585   0.51552594    29.967299    67547.873   0.53058665    30.938914 
 4004000   0.99359294   0.52196374    29.957547    66952.977   0.53530107    30.932632 
 4006000   0.99620005   0.54288519    29.952777     66408.64   0.53968881    30.958699 
 4008000   0.99903068   0.51792589    29.949368    65906.705     0.543799    30.901789 
 4010000    1.0050183   0.56440305    29.959966    65452.325   0.54757413    30.990699 
 4012000   0.99684211   0.64011844    29.954204    65038.473   0.55105845    31.115821 
 4014000     1.005176   0.59586612    29.956205    64660.245   0.55428185    31.031228 
 4016000    1.0036513   0.61317708    29.941026    64325.349   0.55716759    31.041551 
 4018000    1.0000592   0.66371356    29.947575    64015.516   0.55986426    31.133065 
 4020000    1.0002663   0.60381068    29.939158     63748.81   0.56220658    31.013159 
 4022000    1.0011075   0.64013327    29.936831    63502.268   0.56438929    31.071036 
 4024000   0.99889038   0.67048584    29.935332    63269.496   0.56646571    31.118962 
 4026000    0.9998268    0.7765872    29.933134    63062.746   0.56832286    31.299589 
 4028000   0.99805192   0.68239849    29.926043    62877.977   0.56999289    31.123249 
 4030000    1.0030602   0.66856789    29.924169    62707.217   0.57154506    31.093924 
 4032000   0.99922701   0.67650734    29.925774    62547.345   0.57300593    31.106402 
 4034000   0.99801984   0.67454742    29.912746    62409.439   0.57427211    31.087359 
 4036000   0.99234199   0.72562904    29.897163    62268.562   0.57557134    31.157874 
 4038000   0.98920349   0.71268351     29.90382    62141.934    0.5767442    31.139521 
 4040000   0.99006046   0.68259475    29.909883    62032.924   0.57775771    31.091338 
 4042000   0.99134507   0.75229981    29.899018    61944.375   0.57858361    31.199262 
 4044000   0.98493654   0.72843798    29.893726    61846.119   0.57950282    31.150732 
 4046000   0.99342133   0.73071547    29.900495    61767.613   0.58023935     31.15983 
 4048000   0.99344555   0.78101223    29.901434    61698.305   0.58089116    31.245941 
 4050000   0.99532428   0.73823222    29.907994    61641.201   0.58142929    31.177679 
 4052000   0.99777756    0.7193397    29.911395    61604.328   0.58177731    31.147847 
 4054000   0.99570365   0.76297947    29.902286    61556.859   0.58222594    31.212739 
 4056000   0.99239577   0.75260561    29.903997    61515.023   0.58262191    31.195753 
 4058000   0.99576328   0.75770677    29.909062    61478.403   0.58296895      31.2088 
 4060000   0.99483269   0.75055903     29.90782    61455.631   0.58318497     31.19482 
 4062000   0.99862299   0.73118075    29.911631    61442.257    0.5833119     31.16513 
 4064000   0.99722672   0.81051419    29.907797     61420.73   0.58351635    31.296814 
 4066000   0.99212614   0.71921062    29.901831    61382.731   0.58387757    31.133614 
 4068000   0.99414008   0.75025619    29.903349    61356.704   0.58412524    31.187758 
 4070000   0.99750036   0.74518146    29.907668     61339.04   0.58429346    31.183023 
 4072000   0.99708315   0.69826422    29.900942    61318.986   0.58448455    31.095609 
 4074000    1.0004835   0.72094087    29.907619     61312.16   0.58454963    31.140947 
 4076000   0.99695611   0.71864232    29.903908    61304.858   0.58461925    31.133157 
 4078000   0.99749172   0.75646907    29.904662    61297.247   0.58469184    31.198453 
 4080000    0.9990367   0.74855276     29.90361    61282.227   0.58483514    31.183548 
 4082000   0.99308407   0.71831471    29.895058    61281.409   0.58484295    31.123276 
 4084000   0.99785562   0.72404191    29.901798    61265.454   0.58499525    31.139486 
 4086000   0.99074942   0.68599557    29.900558    61246.725   0.58517415    31.072851 
 4088000   0.99784288   0.75204422    29.905917    61237.789   0.58525954    31.190893 
 4090000   0.99189474   0.68773201    29.899235    61223.229   0.58539872    31.074045 
 4092000   0.99427091   0.80847923     29.89432     61211.75    0.5855085    31.275135 
 4094000   0.99847093   0.71217474    29.902348    61203.103   0.58559123    31.118511 
 4096000   0.99809277   0.76482105    29.906531    61211.073   0.58551498    31.212768 
 4098000   0.99927433    0.6984921    29.908634    61213.383   0.58549288    31.101633 
 4100000   0.99820358   0.72333996    29.911033     61217.34   0.58545504     31.14655 
 4102000   0.99854081    0.7798274    29.907493    61217.458    0.5854539    31.239498 
 4104000    1.0061798   0.73676219    29.914483    61221.027   0.58541978    31.173003 
 4106000     1.000632   0.73865767     29.90197    61224.353   0.58538797    31.163795 
 4108000    1.0013344   0.72067559    29.904474    61231.554   0.58531913    31.135726 
 4110000   0.99989137   0.78360733    29.906209    61242.563   0.58521391    31.245219 
 4112000   0.99625562   0.75247861    29.902328    61245.728   0.58518367    31.188212 
 4114000   0.99527151   0.72503387    29.903455    61243.243   0.58520742    31.142389 
 4116000   0.99144839   0.74840919    29.899158     61254.22   0.58510254    31.178266 
 4118000   0.99964135   0.76187849    29.906707    61241.201   0.58522693    31.208559 
 4120000    1.0009066   0.74338024     29.90758    61246.713   0.58517426    31.177937 
 4122000   0.99422805   0.72145589    29.907726    61240.458   0.58523403     31.14049 
 4124000   0.99379881   0.77452156    29.905417    61233.294    0.5853025    31.228701 
 4126000     1.001109   0.72526235    29.905523    61242.416   0.58521532    31.144831 
 4128000   0.99926041    0.7150402    29.905794    61236.587   0.58527103    31.127519 
 4130000   0.99721014   0.77340038    29.905816     61235.37   0.58528265    31.227229 
 4132000   0.98715727   0.71165179    29.893737    61238.416   0.58525354    31.109708 
 4134000   0.99633788   0.72344871    29.905283    61218.927   0.58543986    31.141018 
 4136000    1.0015939   0.71920932    29.907585    61222.893   0.58540193    31.136159 
 4138000   0.99631173   0.82883804    29.904423    61232.459   0.58531048    31.320488 
 4140000   0.99443342   0.70048376    29.911312    61237.744   0.58525997    31.108188 
 4142000   0.99670972   0.78233737    29.910658    61238.857   0.58524933    31.247417 
 4144000   0.99749495   0.77415511    29.909886    61247.426   0.58516745    31.232849 
 4146000    1.0037327   0.77225323    29.913479    61248.338   0.58515873    31.233211 
 4148000    1.0026831   0.75566703    29.913128    61253.811   0.58510645    31.204631 
 4150000   0.99765229   0.77574609    29.909545     61246.25   0.58517869    31.235202 
 4152000   0.99728527   0.75097593    29.899164    61237.686   0.58526052    31.182312 
 4154000   0.99349862   0.75634836    29.895996    61232.753   0.58530767     31.18822 
 4156000   0.99449981   0.69477108    29.903724    61213.068   0.58549589    31.090361 
 4158000    1.0025761   0.75006537    29.906762    61210.113   0.58552416    31.187777 
 4160000   0.99889784    0.7715454     29.90483    61200.883   0.58561247    31.222331 
 4162000   0.99036804   0.75804244    29.905012    61203.108   0.58559118    31.199503 
 4164000   0.99885519   0.75383455     29.90833    61200.872   0.58561257    31.195588 
 4166000   0.99984533   0.79898863    29.911232    61214.262   0.58548447    31.275894 
 4168000    0.9954363   0.72190796    29.908204    61220.385   0.58542591    31.141337 
 4170000   0.99299571   0.68436532    29.901954    61228.656   0.58534684    31.071116 
 4172000   0.99150539   0.76016919    29.903799    61226.788    0.5853647    31.202424 
 4174000   0.99804435   0.77265492    29.907929    61234.802   0.58528808    31.228056 
 4176000    1.0022327    0.7157659     29.91249    61235.273   0.58528358    31.135429 
 4178000   0.99890147   0.75899267     29.90088    61241.319    0.5852258    31.197803 
 4180000   0.99455827   0.73292984    29.900755    61234.138   0.58529443    31.152996 
 4182000    1.0022022   0.78889621    29.898908    61224.663   0.58538501    31.246562 
 4184000   0.99844682   0.73006938    29.912885    61230.602   0.58532824    31.160167 
 4186000    1.0043224   0.81258196     29.90477    61231.157   0.58532293    31.293033 
 4188000   0.99627145   0.80890434    29.906119    61237.476   0.58526253    31.288242 
 4190000    1.0004254   0.79138489    29.902733    61232.901   0.58530626     31.25482 
 4192000    1.0001144   0.81345765    29.910049    61229.382   0.58533989    31.299767 
 4194000    1.0003142   0.72698156    29.901949    61232.553   0.58530958    31.143995 
 4196000    0.9931821   0.77137004    29.898788    61227.659   0.58535636    31.216567 
 4198000   0.99139022   0.72396757    29.896644    61231.419   0.58532042    31.133518 
 4200000   0.99009471   0.71076479    29.895078     61221.96   0.58541085    31.109208 
 4202000   0.99414241   0.74280294     29.89416    61208.839   0.58553635    31.162745 
 4204000   0.99515403    0.7774082    29.904356     61208.64   0.58553825    31.232037 
 4206000    1.0014178    0.6826443    29.909853    61213.519   0.58549158    31.075787 
 4208000    1.0000071   0.76465878    29.908288    61223.314   0.58539791    31.214509 
 4210000     1.001626   0.74011823    29.902603    61230.256   0.58533154    31.167046 
 4212000    1.0049407   0.71359164    29.913344    61234.541   0.58529058    31.132553 
 4214000    1.0005951   0.73403004    29.910837    61241.375   0.58522526    31.165106 
 4216000    0.9991949   0.79391626    29.912396    61251.681    0.5851268    31.269224 
 4218000   0.99475911   0.73853373    29.902054    61243.905   0.58520109    31.164071 
 4220000   0.99269037   0.77335906    29.900734    61236.381     0.585273    31.222099 
 4222000   0.99318259   0.68660565    29.898515    61220.714   0.58542277    31.071353 
 4224000   0.99646132   0.77416064    29.907019    61218.213   0.58544669    31.229361 
 4226000   0.99762433   0.79125491    29.907975    61226.007   0.58537216    31.259687 
 4228000    1.0005992   0.74586431    29.914184    61224.939   0.58538237    31.188333 
 4230000   0.99572321   0.75707003    29.907668    61229.291   0.58534076    31.201052 
 4232000    1.0024054    0.6853554    29.917259    61237.458    0.5852627    31.088281 
 4234000    1.0027668    0.8172735    29.910214    61250.338   0.58513963    31.306929 
 4236000   0.99974933   0.77836273    29.902264    61257.823   0.58506813    31.232643 
 4238000   0.99800347   0.83637205    29.907642    61258.196   0.58506457     31.33718 
 4240000    1.0022531   0.78558052    29.905508    61267.625   0.58497453    31.248439 
 4242000    1.0037157    0.7618155    29.909764    61263.414   0.58501474     31.21198 
 4244000     1.002777   0.65413778    29.907676    61265.648   0.58499341    31.025873 
 4246000   0.99750527   0.74180311    29.908541    61266.508   0.58498519    31.176612 
 4248000   0.99799424   0.76444179    29.909552    61261.923   0.58502898    31.216226 
 4250000   0.99466659   0.76545737    29.904088     61250.55   0.58513761    31.212254 
 4252000    1.0023415   0.73702237    29.910915    61247.923    0.5851627    31.170432 
 4254000    1.0009822   0.79790595     29.90986     61249.59   0.58514678     31.27346 
 4256000    1.0015509    0.7541002    29.913657    61259.512     0.585052    31.202603 
 4258000    1.0067621   0.69287681    29.917132    61264.983   0.58499976    31.101537 
 4260000    1.0006986   0.82183006    29.921459    61269.254   0.58495898    31.326395 
 4262000    1.0056748   0.77964835    29.917207    61275.874   0.58489577    31.250177 
 4264000    1.0016804   0.73644661    29.910735    61280.243   0.58485408    31.169932 
 4266000    1.0049557    0.8434338    29.916769    61278.726   0.58486856     31.35886 
 4268000    1.0057741   0.79744047    29.916761     61281.37   0.58484332    31.280272 
 4270000   0.99999909   0.79402797    29.914469     61282.63    0.5848313    31.272173 
 4272000   0.99804304   0.80565898    29.911128    61270.707    0.5849451    31.288453 
 4274000    0.9990691    0.7104582    29.909209    61268.072   0.58497026    31.123729 
 4276000    1.0010156   0.71551052    29.915168    61262.862   0.58502001    31.138221 
 4278000    1.0008339   0.68048565    29.918789    61272.029   0.58493248    31.082147 
 4280000   0.99722149   0.75728924    29.914227    61276.123    0.5848934    31.208974 
 4282000   0.99540257   0.71638835    29.906541    61273.805   0.58491553    31.131313 
 4284000   0.99091852   0.73718801    29.897914    61275.454   0.58489979     31.15828 
 4286000   0.99585487   0.82079367    29.913264    61265.714   0.58499278    31.316347 
 4288000    0.9961364   0.65898699    29.911238    61259.865   0.58504862    31.037617 
 4290000   0.99292572   0.77439245    29.904389    61249.334   0.58514922    31.227799 
 4292000   0.99178062   0.79943275    29.901893    61243.149   0.58520832    31.267959 
 4294000   0.99238984   0.79994085    29.900246    61229.968   0.58533429    31.266885 
 4296000    1.0039152   0.73310249    29.907266    61226.566   0.58536681    31.159647 
 4298000    0.9984366   0.71370965    29.913573     61236.48   0.58527205    31.133023 
 4300000    1.0007823   0.70944749    29.909795    61245.165   0.58518906    31.122134 
 4302000   0.99970029   0.75542799    29.915174     61247.64   0.58516541    31.206139 
 4304000    1.0038512   0.79626774    29.910771     61258.24   0.58506415    31.271763 
 4306000   0.99678006    0.7147229     29.91498    61253.675   0.58510775    31.136504 
 4308000   0.99852645   0.77603413    29.909394    61255.259   0.58509262    31.235738 
 4310000    1.0022771   0.76212281    29.906968    61256.899   0.58507695    31.209571 
 4312000    1.0011149   0.71157946    29.911255    61253.324    0.5851111    31.127399 
 4314000    1.0002009   0.78237809    29.923555    61253.427   0.58511012    31.260702 
 4316000    1.0003435   0.79889206    29.908483    61256.276   0.58508291    31.273917 
 4318000   0.99773474   0.73951336    29.911851    61253.261   0.58511171    31.175735 
 4320000    1.0064123    0.7654189    29.916774    61250.407   0.58513897    31.224871 
 4322000    1.0054187   0.73714864    29.925335    61254.701   0.58509795    31.185208 
 4324000    1.0036491   0.75175438    29.915561    61251.908   0.58512463    31.200337 
 4326000    1.0058573   0.79235763    29.920777    61250.693   0.58513624    31.274919 
 4328000    1.0006563   0.71519711    29.916598     61242.92    0.5852105    31.138718 
 4330000    1.0030827   0.76222661    29.905383    61232.064   0.58531426    31.207635 
 4332000   0.99103717   0.75493325    29.898826    61224.085   0.58539054    31.188449 
 4334000    0.9954332    0.8249328    29.900352    61208.159   0.58554285    31.309186 
 4336000   0.98960124   0.69046084    29.894509    61196.825    0.5856513    31.073472 
 4338000   0.98987081   0.74919083    29.894576    61185.299   0.58576162    31.173579 
 4340000   0.99061796   0.71891799    29.890878    61174.727   0.58586285    31.117988 
 4342000   0.98953076   0.65864179    29.899545    61164.277   0.58596295    31.023578 
 4344000   0.99215058    0.7679242    29.898888    61164.325   0.58596248    31.209423 
 4346000   0.99164796   0.73496272    29.905234    61161.705   0.58598758    31.159463 
 4348000   0.99793114   0.77749898    29.909435    61151.543   0.58608497    31.236032 
 4350000    1.0003805   0.77970368    29.905566    61152.059   0.58608002    31.235937 
 4352000   0.99882122   0.76928032     29.90921    61150.046   0.58609931    31.221752 
 4354000   0.99896926    0.7509738    29.912464    61151.836   0.58608216    31.193809 
 4356000    1.0012487   0.71687381    29.909382    61170.037   0.58590777    31.132909 
 4358000    1.0042976   0.74548813    29.917024    61186.536   0.58574978    31.189732 
 4360000    1.0026182   0.71673144     29.91622    61203.462   0.58558779    31.140172 
 4362000    1.0019973   0.69001158    29.923194    61212.655   0.58549984    31.101695 
 4364000    1.0000281    0.7599724    29.916651    61225.868   0.58537349     31.21492 
 4366000   0.99801333   0.79571595      29.9112     61225.26    0.5853793    31.270517 
 4368000   0.99650471   0.76312608    29.915091    61225.385   0.58537811    31.218738 
 4370000    1.0009483   0.74289413    29.916436    61234.888   0.58528726    31.185717 
 4372000    1.0055822   0.75165008    29.922906    61242.546   0.58521408    31.207308 
 4374000    1.0077271   0.73023191    29.919392     61246.76   0.58517381    31.167281 
 4376000    1.0048961    0.7252737    29.920582    61264.735   0.58500213    31.160361 
 4378000     1.005302   0.72204234    29.926762    61270.291   0.58494908     31.16113 
 4380000     1.004966   0.74448207    29.924714    61277.953   0.58487594    31.197603 
 4382000    1.0012602   0.80864961    29.917707    61277.307    0.5848821    31.300293 
 4384000    1.0038491   0.77692771    29.923066    61283.857   0.58481958    31.251557 
 4386000   0.99972127   0.67175454     29.92161    61291.818   0.58474363    31.070412 
 4388000    1.0071053   0.74060456     29.91812    61287.428   0.58478551    31.184575 
 4390000   0.99673649   0.75526332    29.919717    61295.315   0.58471026    31.211406 
 4392000    1.0001208    0.7309331    29.915461    61295.422   0.58470925    31.165541 
 4394000    1.0009426   0.73435042    29.917761    61294.238   0.58472054    31.173661 
 4396000    1.0014869   0.76696953    29.915321    61300.475   0.58466104     31.22714 
 4398000    1.0042164     0.781998    29.918307    61305.818   0.58461009    31.255947 
 4400000    1.0052588   0.80108374     29.92876    61312.541   0.58454599    31.299198 
 4402000    1.0103047   0.74411844      29.9298    61312.185   0.58454939    31.202778 
 4404000    1.0108746   0.77009756    29.928001    61309.544   0.58457456    31.245365 
 4406000    1.0048742   0.76972043    29.923749    61308.543   0.58458411    31.240446 
 4408000    1.0036013   0.71985234    29.921433    61312.954   0.58454205    31.152913 
 4410000     1.001985   0.68097916    29.924053    61318.359   0.58449053    31.089135 
 4412000     1.002349   0.76024845    29.916718    61333.912   0.58434231    31.217751 
 4414000    1.0071631   0.77976902     29.92684    61336.884     0.584314    31.261343 
 4416000    1.0129105   0.77350881    29.929915    61356.869   0.58412368    31.254136 
 4418000    1.0068614   0.72384893    29.921829    61359.056   0.58410286    31.161078 
 4420000     1.005674   0.79696321    29.919855    61343.292   0.58425296    31.283928 
 4422000    1.0007128   0.73666918    29.916108    61333.043   0.58435059    31.176771 
 4424000    1.0006566   0.76244976    29.912857    61325.532   0.58442216    31.217478 
 4426000    1.0048553   0.70567525    29.913096    61319.985   0.58447503    31.120462 
 4428000   0.99852672   0.73563744     29.91095     61317.56   0.58449815    31.169529 
 4430000    1.0005885   0.76251911    29.910502    61309.217   0.58457768    31.214895 
 4432000    1.0021525   0.71834961    29.908299    61302.082   0.58464572    31.136991 
 4434000   0.99577978    0.7576774    29.907323    61300.713   0.58465878    31.203253 
 4436000    1.0047963   0.72050819    29.911654    61288.814   0.58477229    31.143771 
 4438000   0.99827748   0.68045411    29.909721    61292.017   0.58474173    31.073404 
 4440000   0.99711469   0.76742022    29.908935    61286.725   0.58479222    31.221231 
 4442000   0.99997532   0.73751342    29.908204    61281.739    0.5848398    31.169256 
 4444000    1.0097115   0.70257501    29.915825    61284.681   0.58481172    31.117194 
 4446000   0.99695795   0.75540638    29.905946    61286.362   0.58479568     31.19769 
 4448000   0.99918216   0.67831647    29.906851    61293.192   0.58473052      31.0669 
 4450000   0.99914495   0.73061525     29.90963    61283.119   0.58482663    31.158915 
 4452000     1.005027    0.7426959    29.911755    61280.655   0.58485014    31.181646 
 4454000   0.99909114   0.73903063    29.914068    61275.337   0.58490091    31.177582 
 4456000    1.0044435   0.71900382    29.913496    61270.192   0.58495002    31.142668 
 4458000    1.0051056   0.71325785    29.915947    61273.627   0.58491723    31.135363 
 4460000    1.0012617   0.77204453    29.906998    61260.581   0.58504179    31.226638 
 4462000   0.99726423    0.6992579    29.904473    61259.569   0.58505145    31.099681 
 4464000    1.0060272   0.77822692    29.918301    61244.202   0.58519825    31.248152 
 4466000   0.99756435   0.70525199    29.917151    61242.039   0.58521892    31.122259 
 4468000   0.99946133   0.77318363    29.910119    61244.178   0.58519848    31.231352 
 4470000   0.99648039   0.75087451    29.909464    61241.408   0.58522495    31.192516 
 4472000   0.99975674   0.80536022    29.906292    61234.431   0.58529163     31.28229 
 4474000    1.0012082    0.7420627    29.914353    61225.549   0.58537654     31.18202 
 4476000    1.0055531   0.69273641    29.926817    61233.087   0.58530448    31.110366 
 4478000    1.0044758   0.69291164     29.92227    61229.468   0.58533907    31.106048 
 4480000   0.99561614   0.77727787    29.913384    61238.747   0.58525038    31.241496 
 4482000    1.0036811   0.67149341     29.91551    61239.044   0.58524755    31.062876 
 4484000   0.99463849   0.75981319    29.909578     61235.04   0.58528581     31.20777 
 4486000    1.0019323   0.79849146    29.912737    61228.015   0.58535297    31.276856 
 4488000   0.99885336   0.78084871    29.904861    61223.414   0.58539695     31.23874 
 4490000   0.99539806   0.79112598    29.906711    61219.237   0.58543689    31.258054 
 4492000    0.9986958   0.71944731    29.909414    61221.729   0.58541307    31.138371 
 4494000    1.0013383   0.76494367    29.906335    61228.037   0.58535275    31.213143 
 4496000    1.0047688   0.75906934    29.917185    61231.329   0.58532129    31.214027 
 4498000     1.002029    0.6763563     29.91249    61232.923   0.58530605     31.06805 
 4500000   0.99524675   0.68087061    29.908795      61224.1   0.58539039      31.0719 
 4502000   0.99959277   0.76948833    29.912067    61228.968   0.58534385    31.226659 
 4504000   0.99954026   0.69478645    29.919134    61234.323   0.58529267     31.10621 
 4506000    1.0004186   0.73716636    29.923861    61246.856    0.5851729    31.183602 
 4508000    1.0036345   0.72205929     29.91668     61256.76   0.58507828    31.150804 
 4510000    1.0007815   0.78548121    29.909505    61268.367   0.58496744    31.252282 
 4512000   0.99890937   0.76249768    29.904105    61261.256   0.58503534    31.207441 
 4514000    1.0015805   0.74696303    29.916904     61252.34   0.58512051    31.193501 
 4516000    1.0005618   0.74679314    29.914605    61252.502   0.58511895    31.190915 
 4518000    1.0002262   0.74261037    29.912479    61246.208   0.58517909     31.18151 
 4520000    1.0047413   0.79568949     29.91264    61242.428   0.58521521    31.272293 
 4522000   0.99740543    0.7878785    29.910362    61247.557    0.5851662     31.25678 
 4524000    0.9993608    0.8064173    29.908618    61251.105    0.5851323    31.286797 
 4526000    1.0011532   0.73730759    29.911932    61246.575   0.58517558    31.171909 
 4528000   0.99593608   0.74486227    29.909155    61246.522   0.58517608    31.182041 
 4530000   0.99906743   0.74091673    29.902022    61246.901   0.58517247    31.168173 
 4532000    1.0001701   0.68791552    29.910245    61254.874   0.58509629    31.085975 
 4534000   0.99907917   0.78250805     29.91186    61257.897   0.58506743    31.249326 
 4536000   0.99468493   0.73101633    29.909848    61249.564   0.58514702    31.159135 
 4538000    0.9985101   0.78077491    29.905623    61247.256   0.58516907    31.239896 
 4540000   0.99579191   0.74369857    29.909658    61244.215   0.58519813    31.180507 
 4542000   0.99830809    0.7624591    29.916576    61242.325   0.58521619    31.219443 
 4544000   0.99667492   0.76774266    29.905615    61247.879   0.58516312     31.21763 
 4546000    1.0031593   0.74271197    29.912182    61251.418   0.58512931    31.181494 
 4548000     1.001828     0.774561     29.91008    61254.931   0.58509575    31.233899 
 4550000     1.000822   0.72402732    29.907012    61259.518   0.58505194    31.144555 
 4552000   0.99644461   0.75410572    29.909937    61256.856   0.58507736    31.198836 
 4554000   0.99525537   0.71779511    29.910987    61254.677   0.58509818    31.137782 
 4556000   0.99988276    0.7506995    29.910445     61250.28   0.58514018    31.193385 
 4558000   0.99973265   0.71976637    29.910468    61250.932   0.58513396    31.140556 
 4560000    1.0004596   0.75745632    29.908783    61245.963   0.58518142    31.203178 
 4562000   0.99640476   0.75569748    29.916776    61251.979   0.58512395    31.208293 
 4564000     1.002764   0.74869135    29.918761    61245.522   0.58518564    31.198169 
 4566000    1.0065099   0.76163045    29.921199    61247.246   0.58516917    31.222755 
 4568000    1.0070022   0.79906358    29.917513    61256.799   0.58507792    31.283251 
 4570000    1.0030531   0.74517208    29.920236    61256.838   0.58507754    31.193865 
 4572000    1.0054988   0.75683755    29.917859    61258.761   0.58505917    31.211468 
 4574000     1.001583   0.78482675    29.915893     61263.58   0.58501315    31.257448 
 4576000    1.0064867   0.74802026    29.917938     61270.74   0.58494479    31.196726 
 4578000    1.0010175   0.77254505    29.914075    61277.306   0.58488211    31.234931 
 4580000   0.99683427   0.74272352    29.910269    61278.077   0.58487475    31.180153 
 4582000    1.0018868   0.71173853    29.918512    61272.707   0.58492601    31.135313 
 4584000    1.0023702   0.80812372    29.923425    61272.725   0.58492584    31.305008 
 4586000   0.99708963   0.79290391    29.920308    61277.662   0.58487871    31.275981 
 4588000    1.0006505   0.72028257    29.923148    61275.428   0.58490003    31.154611 
 4590000     1.005813   0.72433591    29.922537    61282.445   0.58483306    31.161072 
 4592000   0.99861706   0.70283519    29.922718    61279.068    0.5848653    31.124422 
 4594000    1.0077356    0.7845041    29.920615    61280.352   0.58485303    31.261985 
 4596000   0.99382401   0.77381184    29.916009    61276.817   0.58488678     31.23902 
 4598000   0.99737802   0.72771116    29.912511    61281.998   0.58483733    31.156807 
 4600000   0.99951891   0.77109139    29.912779    61278.565   0.58487009    31.231176 
 4602000    1.0010828   0.74237848    29.919726    61287.011   0.58478949    31.189206 
 4604000    1.0064574   0.77990997    29.921375    61291.285   0.58474871    31.255127 
 4606000    1.0028198   0.70068086    29.920781    61290.668    0.5847546    31.119028 
 4608000    1.0042876   0.70398155    29.925535     61297.55   0.58468895    31.129563 
 4610000    1.0068361   0.74945178    29.933701    61295.736   0.58470625    31.215459 
 4612000    1.0064463   0.76771324    29.929917    61303.162   0.58463542    31.243066 
 4614000    1.0085149     0.749142    29.931668      61309.2   0.58457785    31.213177 
 4616000    1.0108804   0.80037829    29.930515    61309.429   0.58457566    31.299676 
 4618000    1.0083162   0.84854616     29.93258    61313.029   0.58454134    31.384225 
 4620000    1.0062538   0.81190684     29.92622    61315.222   0.58452044    31.315234 
 4622000    1.0071504   0.79392579     29.93252    61316.751   0.58450586    31.290805 
 4624000    1.0073817    0.7363031    29.924513    61316.344   0.58450974    31.184207 
 4626000    1.0053891   0.77001632    29.924985    61314.669    0.5845257    31.242321 
 4628000    1.0092258   0.75117598    29.937697    61317.148   0.58450207    31.222852 
 4630000    1.0030781   0.76940956    29.919623    61323.913   0.58443759    31.236118 
 4632000    1.0027781   0.69892855     29.92451    61333.565   0.58434562    31.120598 
 4634000    1.0066289   0.76547102    29.915741    61326.724   0.58441081    31.225558 
 4636000    1.0002141   0.79314297    29.909182    61328.133   0.58439738     31.26638 
 4638000     1.000506   0.74774987    29.917209    61320.387   0.58447119     31.19657 
 4640000    1.0031534   0.71630671    29.916027    61320.821   0.58446706    31.141599 
 4642000    1.0019112   0.78693719    29.914119    61312.403   0.58454731    31.260353 
 4644000    1.0028115   0.77598715    29.920264    61307.964   0.58458963    31.247669 
 4646000    1.0032858      0.72846    29.915771    61299.985   0.58466572    31.161714 
 4648000    1.0025783    0.8019813    29.915533    61302.761   0.58463924    31.287287 
 4650000    1.0038463   0.73616497    29.917685    61302.882   0.58463809    31.176866 
 4652000   0.99783442   0.75333763    29.918183    61298.677    0.5846782    31.206649 
 4654000    1.0013337   0.75807335     29.91818     61294.93   0.58471394    31.214666 
 4656000    1.0001377   0.74696135    29.921488    61297.211   0.58469218    31.199017 
 4658000    1.0033254   0.79883089    29.913187    61305.242   0.58461559    31.279607 
 4660000    1.0059147   0.76313117    29.911731    61300.382   0.58466194    31.216983 
 4662000   0.99849577   0.71521758    29.913484    61299.104   0.58467413     31.13676 
 4664000    1.0048335   0.69266087    29.905896     61289.75   0.58476336    31.090411 
 4666000   0.99380832   0.74188719    29.910521    61271.278   0.58493965    31.178835 
 4668000    1.0032346   0.82711446    29.917527     61287.21   0.58478759    31.331911 
 4670000     1.006756    0.7149264    29.924142    61288.728   0.58477311    31.146712 
 4672000    1.0045163    0.7235631    29.928833    61292.677   0.58473544    31.166253 
 4674000     1.008417   0.72695721    29.931216    61296.914   0.58469501    31.174526 
 4676000    1.0064553   0.77314577     29.92691    61306.467    0.5846039    31.249423 
 4678000    1.0027556   0.73732775    29.924503    61314.842   0.58452405    31.185919 
 4680000    1.0125525   0.76191511     29.92336    61316.922   0.58450423    31.226883 
 4682000    1.0076603   0.84092903    29.925956    61323.222   0.58444418    31.364809 
 4684000     1.002054    0.7552093    29.918169    61322.907   0.58444718    31.210346 
 4686000    1.0055396   0.74109396    29.923807    61328.252   0.58439624    31.191943 
 4688000    1.0052812   0.83131554    29.921425    61338.622   0.58429744    31.344186 
 4690000    1.0058945     0.759844    29.927065    61333.835   0.58434304    31.227403 
 4692000    1.0084117    0.7869008    29.926662    61331.194   0.58436821    31.273246 
 4694000    1.0061458   0.75382966    29.923801    61328.805   0.58439098    31.213742 
 4696000   0.99925408   0.73622144    29.917123    61336.838   0.58431444    31.177098 
 4698000   0.99901869   0.81492068    29.918219     61328.32   0.58439559    31.312686 
 4700000    1.0000804     0.757615    29.915199    61332.687   0.58435398    31.211699 
 4702000     1.003133   0.79748268    29.916016    61330.266   0.58437705    31.280687 
 4704000    1.0046147   0.77224758    29.920958    61330.866   0.58437134     31.24246 
 4706000    1.0044254   0.79748087    29.915519    61327.628   0.58440219    31.280129 
 4708000    1.0002141   0.73719689    29.918008    61321.922   0.58445657    31.179346 
 4710000     1.000013    0.8276039    29.914618    61314.101   0.58453112     31.33046 
 4712000   0.99917028   0.80498694    29.908682      61314.9    0.5845235    31.285849 
 4714000   0.99862582    0.7534297     29.90523    61307.754   0.58459163    31.194044 
 4716000   0.99778541   0.72604452    29.909006    61295.495   0.58470855    31.150726 
 4718000    0.9930831   0.70826272    29.904033    61283.247   0.58482541      31.1151 
 4720000   0.98704117   0.71572989    29.893216    61260.007   0.58504727    31.116587 
 4722000   0.98606939   0.73676741    29.890635    61241.309    0.5852259    31.149581 
 4724000   0.98597071   0.72956732    29.890796    61210.979   0.58551588    31.136821 
 4726000   0.98932753   0.74212098    29.891891    61194.142   0.58567698    31.159008 
 4728000   0.99119831   0.80056215    29.896073    61194.287   0.58567559    31.262977 
 4730000    0.9921799   0.72779634    29.890661    61190.688   0.58571003    31.133249 
 4732000   0.99378882   0.81646307    29.897462     61192.34   0.58569422    31.291471 
 4734000   0.99653461    0.7078924    29.898102     61195.53   0.58566369    31.106804 
 4736000   0.99353024   0.74901006    29.895482    61187.929   0.58573644    31.174232 
 4738000   0.99939348   0.72204156    29.896942    61183.356   0.58578022    31.129557 
 4740000   0.99397527    0.8079089    29.896159    61180.438   0.58580816    31.275295 
 4742000    1.0019429   0.72278047    29.897723    61193.989   0.58567844    31.131814 
 4744000   0.99596965   0.73993979    29.897399    61196.269   0.58565662    31.160835 
 4746000   0.99266748   0.78277326    29.896413    61191.348   0.58570372    31.232879 
 4748000   0.99232726   0.78432121    29.897333    61192.912   0.58568875    31.236476 
 4750000   0.99267946   0.65715939    29.889446    61189.301   0.58572331    31.011408 
 4752000   0.99644135   0.82417248      29.8924    61190.502   0.58571181    31.299529 
 4754000   0.99216958   0.72452176    29.890844    61187.644   0.58573918     31.12778 
 4756000    0.9943343   0.71791523     29.89233    61185.463   0.58576005    31.117943 
 4758000    0.9910879    0.7236221    29.887142    61180.334   0.58580916    31.122394 
 4760000   0.98982623   0.79503749    29.885917    61172.988    0.5858795    31.242915 
 4762000   0.98945067   0.73806714    29.890763     61157.78   0.58602519    31.150209 
 4764000   0.99012115   0.79692698    29.889125    61161.259   0.58599186    31.249087 
 4766000   0.99631521   0.80941948    29.895195     61164.09   0.58596474     31.27654 
 4768000   0.99375533   0.73866291    29.894147    61169.314   0.58591469    31.154847 
 4770000   0.99023969   0.73019885    29.890089    61165.571   0.58595055    31.136267 
 4772000   0.98537115   0.75078411    29.894318    61170.132   0.58590686    31.175723 
 4774000   0.99881365   0.75892233    29.906532    61177.855    0.5858329    31.201991 
 4776000   0.99960827   0.71170408    29.900633    61184.602    0.5857683    31.115625 
 4778000   0.99843443   0.76032036    29.906757    61182.518   0.58578824    31.204701 
 4780000    0.9984186   0.74870177    29.907169      61187.1   0.58574438    31.185374 
 4782000   0.99858114   0.82202059    29.905087    61182.058   0.58579265    31.308349 
 4784000    1.0010436   0.80137141    29.909193    61187.371   0.58574179    31.277324 
 4786000    1.0040252   0.70433845    29.913504     61193.66   0.58568159      31.1161 
 4788000    1.0022369    0.7804225    29.920151    61198.895   0.58563149    31.252768 
 4790000     1.001349   0.71945644    29.912935    61199.932   0.58562157     31.14147 
 4792000    1.0024618    0.7461788    29.917035    61205.788   0.58556553    31.191323 
 4794000   0.99945796   0.74480156    29.916231    61220.732    0.5854226    31.188477 
 4796000    1.0041548   0.74787748    29.919463     61234.75   0.58528859    31.197256 
 4798000    1.0061285   0.73968504    29.922962    61248.994   0.58515247    31.187051 
 4800000    1.0048642   0.75327203    29.920861    61263.477   0.58501413    31.208475 
 4802000    1.0048978    0.7345193    29.917838    61272.415    0.5849288    31.173579 
 4804000    1.0042786    0.8438574    29.914971    61280.293    0.5848536    31.357823 
 4806000      0.99948   0.77078404    29.908547     61277.07   0.58488436    31.226387 
 4808000    1.0035092   0.78222051    29.916119    61287.735   0.58478258    31.253745 
 4810000    0.9990159   0.69028271    29.912582    61292.852   0.58473376     31.09309 
 4812000    1.0007013   0.76733237    29.913956    61290.431   0.58475686    31.226181 
 4814000    1.0052201   0.71043707    29.919918    61293.064   0.58473174    31.134897 
 4816000     1.006737   0.78342615    29.923209    61289.548   0.58476529    31.262936 
 4818000    1.0019427   0.76582037    29.923054    61288.498   0.58477531    31.232651 
 4820000    1.0004216   0.74560238    29.910191    61274.802   0.58490601     31.18493 
 4822000   0.99896932   0.76890718     29.91278    61264.539   0.58500399    31.227142 
 4824000   0.99936079   0.82175522    29.909217    61259.656   0.58505062    31.313805 
 4826000   0.99351424   0.74592628    29.902389    61256.138   0.58508422    31.177293 
 4828000   0.99728703   0.68144171    29.903891    61248.803   0.58515429    31.068441 
 4830000   0.99183329   0.74751983    29.901766     61237.75   0.58525991     31.17901 
 4832000   0.99353259   0.74805166     29.89996    61225.918   0.58537301    31.177866 
 4834000   0.99656935   0.70422439    29.897634    61214.848   0.58547887    31.100452 
 4836000   0.99126151   0.73307992    29.889648    61213.943   0.58548753    31.141733 
 4838000   0.99096931   0.83701128    29.887935    61207.527    0.5855489    31.317383 
 4840000   0.99082357   0.68021308    29.892703     61188.44   0.58573155    31.054008 
 4842000   0.99400586   0.71863521    29.895858    61179.545   0.58581671    31.122581 
 4844000   0.99216344   0.72346372    29.891885    61175.014   0.58586011     31.12676 
 4846000   0.99362515   0.74737377    29.901572    61168.697    0.5859206    31.177127 
 4848000   0.99800329   0.76484568    29.903312    61160.247   0.58600156    31.208506 
 4850000   0.99298003   0.82171716    29.895454    61161.434   0.58599019    31.297725 
 4852000   0.99833943   0.70152113    29.913531    61162.276   0.58598212    31.110703 
 4854000   0.99420962   0.76579157    29.903426    61160.491   0.58599922     31.21024 
 4856000    1.0001955   0.79924194    29.909734    61164.419   0.58596159    31.273717 
 4858000     1.002336   0.70670519    29.909106    61163.936   0.58596621    31.115157 
 4860000   0.99893662   0.72713331    29.911714    61171.493   0.58589383    31.152781 
 4862000     1.002304    0.7733437    29.907354    61179.207   0.58581995    31.227459 
 4864000   0.99268908    0.7888886    29.908131    61191.896   0.58569848     31.25505 
 4866000   0.99912157   0.73230769    29.907246    61180.929   0.58580347    31.157337 
 4868000    1.0030722   0.75920417    29.909301    61187.961   0.58573614    31.205455 
 4870000   0.99832777   0.76447377    29.913022    61200.158   0.58561941    31.218433 
 4872000    1.0005156   0.79498166    29.909875    61197.222    0.5856475    31.267315 
 4874000   0.99472738   0.69283335    29.907453    61204.929   0.58557375    31.090623 
 4876000    1.0004616    0.6953793    29.908787    61204.208   0.58558065     31.09629 
 4878000    1.0002617   0.72027156    29.915068    61213.587   0.58549093    31.145269 
 4880000   0.99989025   0.79292161    29.910362    61212.766   0.58549879    31.264629 
 4882000     1.002186   0.72632328    29.917088    61217.917   0.58544952    31.157713 
 4884000    1.0042982   0.75270063    29.919605    61213.555   0.58549124    31.205193 
 4886000    1.0004966   0.79853478    29.917527    61227.747   0.58535552    31.281715 
 4888000    1.0034184   0.75889513    29.917718    61233.893   0.58529678    31.214317 
 4890000    1.0040749   0.82704423    29.917395    61242.678   0.58521281    31.330632 
 4892000   0.99720708   0.72884975    29.912157    61246.375   0.58517749    31.157676 
 4894000   0.99762649   0.78263137    29.906646    61249.285   0.58514969    31.244135 
 4896000    1.0007732   0.75920316    29.916171    61260.037   0.58504699     31.21385 
 4898000    1.0035256   0.79181692     29.91064    61251.004   0.58513327    31.263865 
 4900000    1.0013975   0.76067883    29.912434    61251.296   0.58513048    31.212449 
 4902000   0.99967951   0.76388901    29.910209    61245.006   0.58519057    31.215577 
 4904000    1.0061063   0.76495252    29.905896    61256.389   0.58508182    31.213324 
 4906000   0.99681389   0.73427739    29.913297    61247.095   0.58517061    31.168106 
 4908000    1.0018978   0.76125562    29.908306    61235.439   0.58528199     31.20897 
 4910000    1.0019778   0.73609016    29.908434    61240.959   0.58522924    31.166215 
 4912000   0.99621979   0.68331518    29.904173    61236.543   0.58527145    31.071692 
 4914000   0.99819969   0.79079574    29.914716    61229.775   0.58533614    31.265728 
 4916000   0.99828028   0.76127123    29.903965    61222.919   0.58540168    31.204391 
 4918000    1.0015852   0.77419851    29.913931    61238.535   0.58525241    31.236777 
 4920000    1.0016227    0.7584561    29.909309    61241.816   0.58522105    31.205325 
 4922000   0.99971211   0.75431883    29.908582    61239.479   0.58524338     31.19748 
 4924000    1.0049192   0.71035467    29.916227    61229.458   0.58533917    31.129804 
 4926000   0.99742309   0.74396206    29.906008    61222.472   0.58540596    31.176856 
 4928000    1.0072663   0.60856353    29.916452    61221.716   0.58541319    30.955998 
 4930000    1.0000679   0.74291752    29.911249    61212.938   0.58549714    31.180115 
 4932000   0.99391843   0.77187561    29.904153    61208.453   0.58554004    31.222381 
 4934000   0.99429032   0.74012753     29.89821    61209.794   0.58552721    31.162246 
 4936000   0.99863266   0.73870885    29.901952    61214.063   0.58548637    31.163653 
 4938000    1.0008316    0.7256187    29.908972    61215.163   0.58547586    31.148338 
 4940000    1.0038699   0.72975348     29.91072    61218.788   0.58544119    31.157222 
 4942000   0.99343018   0.73236366    29.902245    61211.221   0.58551356    31.153051 
 4944000   0.99523085   0.80190941    29.902458    61211.369   0.58551215    31.272045 
 4946000   0.99631699   0.74925555    29.907741    61204.081   0.58558187    31.187247 
 4948000   0.99732584   0.75395965    29.902377    61193.014   0.58568777    31.189683 
 4950000    1.0001623   0.68478044    29.907142    61192.426   0.58569339    31.076321 
 4952000   0.99659705   0.73778746    29.902435    61197.731   0.58564263    31.162226 
 4954000    1.0020608   0.71765459    29.912947    61199.894   0.58562193    31.138404 
 4956000   0.99450387   0.79030218    29.901234    61207.464    0.5855495     31.25091 
 4958000   0.99794789   0.73680662     29.91413     61215.13   0.58547617    31.172605 
 4960000   0.99895709   0.78778744    29.906939    61209.706   0.58552806     31.25237 
 4962000   0.99902184   0.76506044    29.903017     61200.79   0.58561335    31.209443 
 4964000   0.99812262   0.78139566     29.90944    61196.478   0.58565462    31.243666 
 4966000   0.99651422   0.79063317    29.901366    61191.701   0.58570033     31.25126 
 4968000   0.99756821   0.76243558    29.897699    61189.311   0.58572322    31.199398 
 4970000   0.99201352   0.72603553    29.891984    61191.832   0.58569908    31.131589 
 4972000   0.99005323   0.75652128    29.895498    61180.858   0.58580414    31.186921 
 4974000   0.99733828   0.75843418    29.905934    61166.572   0.58594096     31.20032 
 4976000   0.99135607   0.72579359    29.905849    61169.539   0.58591254    31.144589 
 4978000   0.99550811   0.74002417     29.90294    61166.738   0.58593937    31.165911 
 4980000   0.99886752   0.79748255    29.900566    61167.306   0.58593393    31.261612 
 4982000   0.99183135   0.68607019    29.902147    61164.704   0.58595886    31.072998 
 4984000   0.99907489   0.76486791    29.898084    61162.617   0.58597885    31.203366 
 4986000   0.99431793   0.74110485    29.897404    61164.373   0.58596203     31.16217 
 4988000   0.99063368    0.6703305    29.898625    61164.029   0.58596532    31.042602 
 4990000   0.99834284   0.75582526    29.908057    61159.764   0.58600619    31.197847 
 4992000    1.0005823   0.74394919    29.907098    61172.017    0.5858888    31.176877 
 4994000   0.99644653   0.71817204    29.908476    61171.228   0.58589636    31.134243 
 4996000    1.0043727   0.72254611    29.913954    61176.735   0.58584363    31.147297 
 4998000    1.0023661   0.74880866    29.916604    61184.755   0.58576683    31.194943 
 5000000    1.0016514   0.76607625    29.912042    61199.981   0.58562109    31.220185 
 5002000    1.0062725   0.78600068    29.914517    61216.822   0.58545999    31.257052 
 5004000   0.99917749   0.73882506    29.915881     61231.41   0.58532051    31.178139 
 5006000    1.0038862   0.76299492     29.91917    61238.179   0.58525581    31.222865 
 5008000    1.0034752   0.76707056     29.91473    61237.173   0.58526542    31.225367 
 5010000    1.0051607   0.81453679    29.921502    61230.197   0.58533211    31.313083 
 5012000     1.003321   0.73393955    29.918874    61232.956   0.58530573    31.172816 
 5014000    1.0013233   0.78555182    29.916924    61244.439   0.58519599    31.259298 
 5016000    1.0001331    0.7137528    29.916519    61250.449   0.58513856     31.13632 
 5018000    1.0018911   0.76774262    29.910567    61249.518   0.58514746    31.222617 
 5020000    1.0007684   0.77247777    29.917122    61261.166    0.5850362    31.237515 
 5022000    1.0054961   0.69381513    29.914057    61271.414   0.58493835    31.100191 
 5024000   0.99906768   0.71163289    29.921632    61275.612   0.58489828     31.13831 
 5026000   0.99673552   0.80757632    29.907826    61281.533   0.58484177    31.288672 
 5028000    0.9974109   0.75911066    29.909652    61277.678   0.58487856    31.207546 
 5030000   0.99797146   0.76270186    29.909481    61272.935   0.58492383    31.213415 
 5032000    1.0026564   0.73996935    29.915179    61275.798    0.5848965    31.180308 
 5034000   0.99914895   0.72115049    29.923464     61268.68   0.58496445    31.156275 
 5036000   0.99735071   0.72542341    29.912025    61269.096   0.58496049    31.152149 
 5038000   0.99974273    0.7358838    29.916913    61271.516   0.58493738    31.174969 
 5040000    1.0048121   0.82588241    29.920988    61272.779   0.58492533    31.332933 
 5042000    1.0068755   0.73488273    29.917533    61266.492   0.58498534    31.173775 
 5044000    1.0005386   0.73736034    29.916841    61260.572   0.58504188    31.177196 
 5046000    1.0031911   0.71413184    29.916831    61257.101   0.58507502    31.137413 
 5048000    1.0058217   0.77779035    29.925777    61260.606   0.58504155    31.255239 
 5050000     1.006949   0.73507096    29.921417    61273.895   0.58491467    31.178132 
 5052000    1.0049107   0.78934287    29.926868    61279.361    0.5848625    31.276489 
 5054000   0.99874057   0.78048389    29.909835    61279.366   0.58486245     31.24431 
 5056000    1.0005542   0.74581343    29.912657    61280.518   0.58485146    31.187875 
 5058000   0.99706516   0.79175021     29.90913    61276.097   0.58489365    31.262795 
 5060000    1.0000738    0.7714638    29.904625     61273.34   0.58491997    31.223547 
 5062000   0.99769112   0.75142694    29.906617    61262.473   0.58502372    31.191056 
 5064000   0.99943995   0.77052993    29.911519    61257.848   0.58506789    31.228512 
 5066000    1.0018853   0.73291611    29.912601    61258.776   0.58505903    31.165323 
 5068000     1.000356    0.8523876    29.907909    61253.904   0.58510556    31.364719 
 5070000   0.99951385   0.73491939    29.915718    61255.438   0.58509091    31.171795 
 5072000    1.0085023   0.78449692    29.922872    61256.795   0.58507795    31.263713 
 5074000      1.00738   0.71376295    29.920498    61260.629   0.58504133    31.140519 
 5076000    1.0026272   0.76779832    29.919537      61265.7   0.58499291    31.232029 
 5078000     1.004413   0.74865333    29.921794    61270.478   0.58494729    31.201659 
 5080000    1.0015497   0.72615998    29.921705    61277.868   0.58487675    31.163265 
 5082000   0.99980804    0.7566121    29.916223    61288.959    0.5847709    31.210084 
 5084000    1.0001032    0.7875785    29.916615    61289.254   0.58476809    31.263437 
 5086000    1.0025131   0.74182984    29.911457    61285.148   0.58480727     31.17996 
 5088000    1.0016035   0.70425185    29.916817    61276.387   0.58489088    31.120891 
 5090000   0.99669444   0.71955517     29.91343    61270.819   0.58494404    31.143557 
 5092000   0.99928343   0.72533956    29.912669    61266.446   0.58498578    31.152596 
 5094000    1.0023544   0.74337837    29.910262     61258.59   0.58506081    31.180862 
 5096000    1.0029598   0.69683016    29.910568    61249.668   0.58514603    31.101434 
 5098000   0.99913866   0.78362928    29.920324    61253.112   0.58511313    31.259602 
 5100000    1.0005273   0.70505438    29.913724    61245.036   0.58519028    31.118553 
 5102000   0.99860079   0.74388498    29.912204    61242.161   0.58521775    31.183329 
 5104000     1.004075   0.74681013     29.92329     61244.66   0.58519387    31.199466 
 5106000    1.0040815   0.78277066     29.91981    61244.674   0.58519374    31.257436 
 5108000    1.0054714   0.77985131    29.911811    61258.931   0.58505755    31.244759 
 5110000    1.0049761   0.77050689    29.910828    61263.706   0.58501195    31.227907 
 5112000   0.99865259   0.77036416    29.907804    61251.993   0.58512382    31.224387 
 5114000   0.99407779   0.71162691    29.905167    61243.407   0.58520585    31.121196 
 5116000   0.99740203    0.7283206    29.903149    61244.517   0.58519524    31.147727 
 5118000   0.99481694   0.75592573    29.896935    61245.442   0.58518641    31.188704 
 5120000   0.99091204   0.79857808    29.901963    61234.136   0.58529446    31.266367 
 5122000    0.9904987   0.74681436    29.890418    61220.207   0.58542762    31.166091 
 5124000   0.99478074   0.72170106      29.9041    61216.801   0.58546019    31.136808 
 5126000   0.99596303   0.84317202    29.903284    61221.371   0.58541649    31.343578 
 5128000    0.9985582    0.7432947    29.910797      61226.1   0.58537127    31.180581 
 5130000    1.0012745   0.66994045    29.901695     61231.59   0.58531879    31.046269 
 5132000    1.0007576   0.76297752      29.9157    61231.692   0.58531781    31.219227 
 5134000   0.99589217   0.74353444    29.912488    61231.694   0.58531779    31.182797 
 5136000    1.0004914   0.72753968    29.914054    61229.588   0.58533793    31.156993 
 5138000     1.002065    0.7846892    29.913121    61226.148   0.58537081    31.253621 
 5140000   0.99610455   0.67364676    29.908661    61231.106   0.58532342    31.059557 
 5142000   0.99696771   0.75899617     29.91293    61231.264   0.58532191    31.209646 
 5144000   0.99355793   0.71256714    29.910785    61227.871   0.58535434    31.128111 
 5146000   0.99664164   0.75714103    29.915779     61227.33   0.58535951    31.209243 
 5148000   0.99304989   0.74110046    29.909789    61219.573   0.58543368    31.175689 
 5150000    1.0006863   0.74544291    29.910178    61213.722   0.58548964    31.183373 
 5152000   0.99799751   0.77177146    29.911721    61220.364   0.58542612    31.230028 
 5154000    1.0029158   0.74090016    29.912904     61228.58   0.58534756    31.178648 
 5156000    1.0043549   0.76142255    29.921175    61238.229   0.58525533    31.222185 
 5158000    1.0111002   0.77999602    29.924217    61248.698   0.58515529    31.257189 
 5160000    1.0035863    0.7807987    29.922743    61267.135   0.58497921    31.257489 
 5162000    1.0045762   0.76075823    29.920205    61268.326   0.58496783    31.220718 
 5164000    1.0003827   0.81092011     29.91541    61270.397   0.58494806    31.301721 
 5166000    1.0041678   0.74252638    29.917217     61278.77   0.58486814    31.186779 
 5168000   0.99869904   0.72246737    29.916924    61284.346   0.58481492    31.152302 
 5170000    1.0053004    0.7555169    29.917558    61288.045   0.58477963    31.209527 
 5172000   0.99698623   0.69306457    29.908808    61283.471   0.58482327    31.093892 
 5174000    1.0004023   0.75396063    29.906348    61277.718   0.58487818    31.195438 
 5176000   0.99925751    0.7206163    29.904983    61278.115   0.58487438     31.13707 
 5178000    1.0000536   0.70697677    29.904581    61274.789   0.58490613    31.113282 
 5180000   0.99703493   0.78103459    29.908576    61268.999   0.58496141    31.243766 
 5182000   0.99910093   0.68848734    29.907324     61266.35    0.5849867    31.084252 
 5184000    0.9975979   0.76194687    29.905786      61255.4   0.58509127    31.208057 
 5186000    1.0041421   0.75767899    29.911342    61251.778   0.58512588    31.206241 
 5188000   0.99926506   0.74645101    29.914613    61253.196   0.58511233    31.190352 
 5190000    1.0027485   0.74452612     29.91798    61257.442   0.58507177    31.190518 
 5192000    1.0028691   0.83014688    29.919361    61261.954   0.58502868    31.338346 
 5194000    1.0032813   0.72899987    29.921295    61268.024   0.58497071    31.167511 
 5196000     1.000355   0.75899955    29.913152    61272.247   0.58493041    31.210741 
 5198000    1.0049927   0.69548696     29.91381    61268.134   0.58496967    31.102738 
 5200000   0.99695703   0.74821054    29.909815    61257.576   0.58507049    31.188653 
 5202000    0.9972561   0.72568074     29.91204    61252.391   0.58512001    31.152265 
 5204000   0.99953348   0.75901485    29.908857    61249.267   0.58514986    31.205986 
 5206000   0.99951313   0.76149421    29.912497    61249.132   0.58515115    31.213861 
 5208000    1.0048044   0.71456315    29.913906    61250.552   0.58513758    31.135095 
 5210000    1.0015073   0.76899962    29.900915    61243.149   0.58520831    31.214976 
 5212000   0.99805577   0.71197085    29.912767    61242.547   0.58521407    31.129366 
 5214000   0.99499359   0.76804128    29.913984     61241.13   0.58522761    31.226364 
 5216000    1.0007025   0.75428913    29.916766    61241.488   0.58522419    31.205655 
 5218000    1.0001918   0.77176358    29.913159    61252.818   0.58511593    31.232152 
 5220000    1.0031818   0.71245589     29.91605    61263.893   0.58501016    31.133902 
 5222000    1.0009495   0.75449503    29.912894    61266.757   0.58498282    31.202667 
 5224000   0.99633026    0.7546484    29.913268     61262.97   0.58501898    31.203224 
 5226000   0.99971058   0.66765248    29.917187    61262.781   0.58502078    31.058432 
 5228000   0.99669907   0.70783527    29.902691    61255.726   0.58508816    31.112483 
 5230000   0.99735482   0.72694315     29.90328    61250.069    0.5851422    31.145616 
 5232000   0.99476016   0.74140914    29.907763    61249.512   0.58514752     31.17481 
 5234000   0.99715581   0.70770219    29.906457    61246.448    0.5851768    31.115839 
 5236000   0.99524991    0.7728398    29.909413    61239.369   0.58524444    31.229955 
 5238000   0.99674786   0.77751799    29.915798    61248.401   0.58515814     31.24453 
 5240000   0.99633981   0.76114899     29.91093    61245.635   0.58518456    31.211629 
 5242000    1.0024868   0.72344895    29.910191    61254.184   0.58510289    31.146639 
 5244000    1.0033252   0.75205749    29.912891    61257.672   0.58506958    31.198306 
 5246000    1.0068671   0.71253754    29.916045    61256.227   0.58508337    31.133884 
 5248000   0.99898378   0.73798004    29.917205    61262.926    0.5850194    31.178668 
 5250000      1.00185    0.8328936     29.90877    61264.623   0.58500319    31.332512 
 5252000    0.9993129   0.74742911    29.909306    61255.453   0.58509076    31.186764 
 5254000   0.99558163   0.76603225    29.906646      61263.3   0.58501583    31.216068 
 5256000     1.001887   0.76532935    29.910315    61262.963   0.58501904    31.218528 
 5258000    0.9973192   0.75544506    29.912304    61263.367   0.58501519     31.20363 
 5260000   0.99677452    0.7711407    29.908336    61265.959   0.58499044    31.226546 
 5262000    1.0013803   0.75236672    29.908544    61260.373   0.58504377    31.194545 
 5264000    1.0043744    0.7443303    29.918545    61263.401   0.58501486    31.190872 
 5266000    1.0069243   0.70409573    29.920906    61260.648   0.58504115    31.124404 
 5268000    1.0006039   0.73550308     29.91062    61270.183   0.58495011    31.167997 
 5270000   0.99938692   0.81470728    29.915029    61267.161   0.58497896    31.307741 
 5272000    1.0040045   0.72509634    29.914039     61267.64   0.58497438    31.153574 
 5274000    1.0053972    0.7518537    29.909923    61278.851   0.58486736    31.195434 
 5276000    1.0015804    0.7149329    29.910391    61275.224   0.58490198    31.132703 
 5278000    1.0008616   0.80693488     29.91297    61270.037    0.5849515     31.29246 
 5280000   0.99588295   0.78589731    29.908852    61260.947    0.5850383    31.252178 
 5282000    1.0017492   0.69257159    29.914708    61261.102   0.58503681    31.098517 
 5284000   0.99635922   0.78101938     29.90655    61260.828   0.58503943    31.241536 
 5286000    1.0009691   0.73132189    29.902164    61264.008   0.58500906    31.152267 
 5288000   0.99558189   0.74441865    29.896363    61259.006   0.58505683     31.16875 
 5290000   0.99652196   0.64491588    29.901003     61241.89   0.58522034    31.003008 
 5292000   0.99340892   0.75933672    29.896152    61229.603   0.58533779    31.193414 
 5294000    0.9993092   0.73120304    29.898439    61221.077    0.5854193    31.147463 
 5296000   0.99301181   0.76467379    29.900426    61219.099   0.58543821    31.206582 
 5298000   0.98999932   0.75297919    29.902471    61206.745   0.58555638    31.188392 
 5300000    1.0013205   0.73051909    29.909351    61196.878    0.5856508    31.156714 
 5302000   0.99415459   0.70442989    29.908982    61185.294   0.58576167     31.11157 
 5304000   0.99611969   0.75330293    29.905177    61182.494   0.58578847    31.191141 
 5306000   0.99981256   0.77361065    29.906346    61179.576   0.58581642    31.226915 
 5308000   0.99884666   0.69608856    29.913611    61184.817   0.58576624    31.101949 
 5310000    1.0024836   0.72498185    29.904598    61194.222   0.58567621    31.142453 
 5312000    1.0000701   0.68735626    29.903234     61202.28    0.5855991       31.077 
 5314000   0.99579419   0.73802644    29.906117    61207.123   0.58555276    31.166509 
 5316000   0.99773507   0.79893394    29.905063    61218.057   0.58544818    31.269716 
 5318000    1.0018613   0.73986802    29.912172    61214.597   0.58548127    31.175864 
 5320000     0.999534   0.82347703    29.907876     61222.91   0.58540178    31.314563 
 5322000   0.99909476    0.7096694    29.909102    61229.697   0.58533689    31.121514 
 5324000   0.99556996   0.77910751    29.907472    61228.068   0.58535246    31.238478 
 5326000   0.99526938   0.71677942    29.903781    61231.108   0.58532339    31.128368 
 5328000   0.99850826   0.78456241    29.906999    61233.051   0.58530482    31.247433 
 5330000    1.0014051   0.79442647    29.918528    61227.777   0.58535524    31.275697 
 5332000   0.99617497   0.73471414    29.910066    61233.835   0.58529733     31.16535 
 5334000   0.99771396   0.72885749    29.910814    61232.984   0.58530547    31.156074 
 5336000      1.00044   0.76931494    29.914475    61238.445   0.58525327    31.228974 
 5338000    0.9982973   0.75366365    29.910589    61232.281   0.58531218    31.198216 
 5340000    1.0051911   0.75922052    29.911755    61236.977    0.5852673    31.208975 
 5342000    1.0023324   0.74723752    29.911131    61252.725   0.58511683    31.188205 
 5344000    1.0032365   0.77108141    29.910839    61261.293   0.58503499    31.228848 
 5346000   0.99519101   0.74555824    29.902338    61267.577   0.58497498    31.176851 
 5348000   0.99949914   0.75382221    29.908831    61268.147   0.58496954    31.197483 
 5350000   0.99910519   0.73974878    29.902613    61267.852   0.58497236    31.167201 
 5352000   0.99295911    0.7280732    29.902687    61266.657   0.58498377    31.147291 
 5354000   0.99777943   0.69973057    29.901626     61258.77   0.58505908    31.097626 
 5356000    1.0016648   0.78122777    29.905658    61249.829   0.58514449     31.24076 
 5358000   0.99809847   0.77258225    29.906284    61245.668   0.58518425    31.226522 
 5360000   0.99500655   0.77764999    29.912119    61248.057   0.58516142    31.241069 
 5362000   0.99855583   0.74084813    29.907483    61252.478   0.58511919    31.173632 
 5364000   0.99661454   0.72111867    29.900037    61253.803   0.58510653    31.132494 
 5366000   0.99997582    0.7535746    29.900996    61249.103   0.58515143    31.188825 
 5368000   0.99539272   0.78700451     29.89756    61239.022   0.58524775    31.242297 
 5370000    0.9981465   0.76094962    29.888224    61233.191   0.58530349    31.188318 
 5372000   0.99204035   0.79013369    29.890423    61228.976   0.58534378    31.240285 
 5374000   0.99596556   0.75057088    29.899699    61223.476   0.58539636    31.181857 
 5376000   0.99507008   0.74894026    29.899462    61223.265   0.58539838    31.178831 
 5378000   0.99806545   0.67505573     29.90166      61216.3   0.58546498    31.054685 
 5380000   0.99370031   0.73911137    29.903893    61209.207   0.58553283    31.166182 
 5382000    1.0028436   0.78047273    29.905874    61211.071     0.585515    31.238842 
 5384000    1.0037047   0.74734268    29.916347    61212.873   0.58549776     31.19277 
 5386000   0.99725262   0.70832302    29.904388    61205.073   0.58557238    31.114013 
 5388000   0.99435204   0.70533285    29.896044    61198.125   0.58563885    31.100426 
 5390000   0.99386952   0.68168231    29.897209    61191.232   0.58570483    31.061076 
 5392000   0.99302232   0.69430503    29.896406      61186.2   0.58575299    31.081727 
 5394000    1.0023859   0.73337744    29.905344    61186.851   0.58574676    31.157382 
 5396000    1.0038119   0.73622889    29.912999    61191.675   0.58570059    31.170004 
 5398000     1.000511   0.73886885    29.910637     61199.08   0.58562972    31.172302 
 5400000    1.0069912   0.73687625    29.919879     61200.32   0.58561785    31.178167 
 5402000    1.0054878   0.70091461    29.926338    61212.572   0.58550064    31.123458 
 5404000    1.0058159   0.77631082    29.930483    61226.333   0.58536904    31.256673 
 5406000    1.0101693     0.754978    29.918827    61245.693   0.58518401    31.208982 
 5408000    1.0013717   0.77961292    29.916517     61260.45   0.58504304     31.24909 
 5410000    1.0031209   0.79334011    29.910087    61265.585     0.584994    31.266238 
 5412000    1.0042957   0.73184344    29.917945    61268.885    0.5849625     31.16904 
 5414000     1.002259   0.74959275    29.915145    61278.269   0.58487292    31.196779 
 5416000    1.0031485   0.75051689    29.911228    61282.328   0.58483418    31.194526 
 5418000    1.0018515   0.80204927    29.912698    61278.603   0.58486973    31.284028 
 5420000    1.0032752   0.75625888    29.918455    61281.486   0.58484221    31.211554 
 5422000   0.99849077   0.80102537    29.908017    61280.422   0.58485237    31.277637 
 5424000    1.0036181   0.73563204    29.917783    61285.729   0.58480172      31.1757 
 5426000    1.0028227   0.77760885    29.920145    61288.117   0.58477894    31.249894 
 5428000    1.0012402   0.77549404    29.920423    61289.335   0.58476732    31.246581 
 5430000    1.0039802    0.7212706    29.922242    61284.758   0.58481099    31.155582 
 5432000    1.0018153   0.76590993    29.929119    61281.455   0.58484251     31.23872 
 5434000    1.0004112   0.74238139    29.916254    61272.767   0.58492544    31.185444 
 5436000    1.0013777   0.67311765    29.918354    61272.441   0.58492855    31.069123 
 5438000    1.0015705   0.69410913    29.915885    61266.963   0.58498085    31.102435 
 5440000    1.0041553   0.77840589    29.925243    61274.523   0.58490868     31.25606 
 5442000    1.0059175   0.69583022    29.922936    61282.503   0.58483251     31.11273 
 5444000   0.99692589    0.7408172    29.911736    61285.009   0.58480859    31.178505 
 5446000    1.0000798   0.75761026    29.913562    61275.599    0.5848984    31.208847 
 5448000    0.9961569   0.72382449    29.908861    61266.293   0.58498725    31.146195 
 5450000   0.99262709   0.77701866    29.907119    61262.968     0.585019    31.235313 
 5452000    1.0035386   0.73334089    29.914767    61252.627   0.58511776    31.168089 
 5454000   0.99852394    0.7336567    29.915971    61250.281   0.58514017    31.169784 
 5456000    1.0023462   0.77709314    29.908404    61256.297    0.5850827    31.236581 
 5458000   0.99964411   0.78116217     29.91379    61257.631   0.58506997     31.24895 
 5460000   0.99893352   0.69490591     29.90694    61253.567   0.58510878    31.094592 
 5462000      0.99907   0.72489208    29.913119    61258.273   0.58506383    31.152116 
 5464000    1.0013171   0.76108594    29.913592    61257.509   0.58507113    31.214435 
 5466000    1.0006437   0.74745173    29.905602    61259.747   0.58504976    31.183188 
 5468000   0.99737226   0.76124705    29.904227    61260.457   0.58504298    31.205409 
 5470000   0.99758165   0.73420955    29.907908    61252.492   0.58511905    31.162712 
 5472000   0.99716425   0.83345603    29.904172    61257.048   0.58507553      31.3287 
 5474000    1.0013881    0.7432441    29.910763    61259.921   0.58504809    31.181161 
 5476000    1.0003344   0.74357896    29.907986    61254.991   0.58509518    31.178855 
 5478000    1.0012912   0.72657872    29.915264    61252.136   0.58512245    31.157019 
 5480000   0.99845203   0.72890865     29.91595    61246.755   0.58517386    31.161578 
 5482000   0.99885481   0.78552106    29.910297    61249.738   0.58514536    31.252735 
 5484000    1.0002295   0.70381182    29.911929    61246.478   0.58517651    31.114663 
 5486000    1.0021342   0.71551071    29.913762     61250.95   0.58513378    31.136578 
 5488000   0.99971125   0.76011858    29.916649    61252.116   0.58512264    31.215725 
 5490000    1.0022081   0.66365754    29.919586    61248.995   0.58515246    31.053748 
 5492000   0.99974814   0.75239195    29.913577    61256.002   0.58508552    31.199529 
 5494000   0.99899326    0.7110332    29.912272    61252.902   0.58511513    31.127474 
 5496000    1.0005698   0.70303755    29.910599    61267.393   0.58497675    31.112421 
 5498000    1.0017588   0.74908066    29.914462    61266.844   0.58498198    31.194981 
 5500000   0.99732579   0.73991434    29.904014    61262.783   0.58502076     31.16878 
 5502000   0.99981421   0.69586802    29.902402    61259.375   0.58505331    31.091812 
 5504000   0.99718865   0.75905739    29.902793    61255.711    0.5850883    31.200131 
 5506000   0.99955252   0.72909263    29.901471     61242.02    0.5852191    31.147317 
 5508000   0.99167973   0.70323052    29.902374    61239.253   0.58524555    31.103973 
 5510000   0.99174257   0.72409698    29.896413    61229.789     0.585336    31.133475 
 5512000    0.9986252   0.74540483     29.90226    61220.878    0.5854212     31.17554 
 5514000   0.99628577   0.77351748    29.902398    61221.747   0.58541289    31.223718 
 5516000    0.9960877   0.71938455    29.895395    61223.765    0.5853936    31.124286 
 5518000   0.99786755   0.70553205    29.903466    61223.256   0.58539847    31.108682 
 5520000   0.99497173   0.76244502    29.900001    61215.957   0.58546826    31.202284 
 5522000   0.99989401     0.728523    29.905647    61220.813   0.58542183    31.150089 
 5524000   0.99159675   0.74559033    29.891412    61216.496    0.5854631    31.164917 
 5526000    0.9986951    0.7288299    29.899593    61212.948   0.58549704    31.144398 
 5528000   0.99790966   0.75307167    29.899279    61221.338   0.58541681    31.185665 
 5530000   0.99201651   0.72799354     29.89572    61218.657   0.58544244    31.139213 
 5532000   0.99450037   0.75611617    29.904604    61224.684   0.58538481    31.196261 
 5534000   0.99409337   0.79167903    29.898253    61220.936   0.58542064    31.250579 
 5536000   0.99660843    0.7678177    29.889697    61221.423   0.58541599    31.201273 
 5538000   0.99358287   0.76380086    29.902699    61223.194   0.58539906    31.207451 
 5540000   0.99783245   0.77356735     29.89791    61215.113   0.58547634    31.219172 
 5542000    1.0018975   0.76995827    29.905903    61221.215   0.58541798    31.221131 
 5544000     1.003643   0.78172227    29.905795    61223.151   0.58539946    31.241161 
 5546000    1.0014108   0.77380624    29.909038    61224.609   0.58538552    31.230913 
 5548000    1.0000499    0.7753019    29.905954    61224.148   0.58538993    31.230374 
 5550000    1.0033566   0.73220208    29.904903    61227.571   0.58535721    31.155767 
 5552000   0.99861785   0.78513809    29.905898     61244.34   0.58519693    31.247563 
 5554000    1.0028021   0.75439245    29.904994    61253.494   0.58510948    31.194312 
 5556000    1.0040172   0.74961274    29.909157    61262.237   0.58502598     31.19049 
 5558000   0.99604332   0.73582617    29.906607    61256.069   0.58508488    31.164247 
 5560000    1.0055134   0.76139483    29.914802    61261.133   0.58503652     31.21625 
 5562000     0.996766   0.77454572    29.903241    61251.816   0.58512551    31.226966 
 5564000    1.0003477   0.78064315    29.910419    61256.458   0.58508117    31.244666 
 5566000    0.9973536   0.74748229    29.910501    61255.535   0.58508998    31.188052 
 5568000   0.99732297   0.72401678    29.905553    61262.153   0.58502678    31.143132 
 5570000   0.99610123   0.70078678     29.90734     61253.65   0.58510799    31.105045 
 5572000    1.0006365   0.80331416    29.909607    61267.976   0.58497118    31.282862 
 5574000   0.99693945   0.75992958    29.904787    61262.143   0.58502687    31.203752 
 5576000   0.99529578   0.74449885    29.908606    61259.418   0.58505289    31.181139 
 5578000    0.9995654   0.84946835    29.906159    61255.335   0.58509189    31.358013 
 5580000   0.99302571   0.72523859    29.904146    61244.526   0.58519516    31.143457 
 5582000   0.99807237   0.71392648    29.907692    61234.514   0.58529084    31.127473 
 5584000   0.99878874    0.7102723    29.900669    61231.153   0.58532297     31.11414 
 5586000   0.99649417   0.77861457    29.905988    61229.658   0.58533726    31.236186 
 5588000    1.0022214   0.76018449    29.900302    61228.976   0.58534378       31.199 
 5590000   0.99197575   0.71409217    29.906431    61216.909   0.58545916    31.126144 
 5592000   0.98983784   0.76053304    29.897121    61201.125   0.58561015    31.195823 
 5594000   0.99331141   0.80210824    29.902026    61189.089   0.58572534    31.271453 
 5596000   0.99488355   0.71635524    29.901797     61184.18   0.58577234    31.124721 
 5598000   0.98649831   0.71156209    29.890151    61173.325   0.58587628    31.104677 
 5600000   0.99340174   0.74576286    29.890103    61171.722   0.58589163    31.162971 
 5602000   0.99100354   0.72922421    29.892299    61176.322   0.58584757    31.137033 
 5604000     0.990628   0.72678121    29.890553    61175.415   0.58585626    31.131098 
 5606000   0.99204666   0.76324966    29.895399    61171.805   0.58589084    31.198116 
 5608000   0.99201173   0.78059342    29.886484    61171.967   0.58588928    31.218807 
 5610000   0.99414545   0.75924414    29.893319    61162.336   0.58598154    31.188998 
 5612000   0.99116564   0.76453966    29.899082    61158.061    0.5860225    31.203707 
 5614000   0.99308527    0.6694523    29.901425    61162.604   0.58597897    31.043876 
 5616000   0.99250022   0.74332525    29.896799    61160.756   0.58599668    31.165279 
 5618000   0.99516741   0.74416779    29.904019    61159.715   0.58600666    31.173915 
 5620000    1.0006974   0.73584666    29.913131    61182.967   0.58578395    31.169306 
 5622000    1.0005682   0.73964977    29.912318    61189.067   0.58572555     31.17511 
 5624000    1.0040157   0.76990924    29.906249    61195.207   0.58566678    31.220835 
 5626000    1.0017866   0.83520995    29.914759    61201.343   0.58560806    31.340986 
 5628000     1.002051   0.77088566    29.916689     61217.18   0.58545656    31.233415 
 5630000    1.0015113    0.8044025    29.914463     61223.39   0.58539718    31.288577 
 5632000   0.99911538   0.77123253    29.916438    61228.864   0.58534485    31.234007 
 5634000    1.0051609   0.72703137    29.916066    61246.319   0.58517803    31.158477 
 5636000    1.0035797   0.73715307    29.921451    61250.101   0.58514189    31.181236 
 5638000   0.99978806   0.83095885    29.913322    61241.849   0.58522074    31.333229 
 5640000     1.001183   0.74890428    29.917347    61240.939   0.58522944    31.197023 
 5642000    1.0066468   0.82305588    29.919022    61239.602   0.58524221    31.325373 
 5644000   0.99782339   0.81320741    29.912526    61244.465   0.58519574    31.302159 
 5646000    1.0027525    0.8097688    29.915488    61246.342    0.5851778    31.299288 
 5648000   0.99956322   0.81352646    29.905357    61253.357   0.58511079    31.295737 
 5650000   0.99991939   0.80431735    29.907235    61251.355   0.58512991    31.281831 
 5652000   0.99613053   0.74789742    29.908389    61236.759   0.58526938    31.186258 
 5654000   0.99439767   0.67701825    29.902558    61229.884    0.5853351    31.059192 
 5656000   0.99738482   0.75357805    29.907349    61224.893   0.58538281    31.194674 
 5658000      1.00214   0.74090582    29.904761     61235.44   0.58528199    31.170656 
 5660000     1.001549   0.75944919    29.905208    61231.154   0.58532296    31.202696 
 5662000    1.0003506   0.78475645    29.911535    61231.371   0.58532088    31.252263 
 5664000    1.0012216   0.74865225    29.902212    61221.422     0.585416     31.18105 
 5666000    1.0018569   0.72791539    29.906468    61227.195    0.5853608    31.150001 
 5668000   0.99697304   0.71577312    29.909388    61228.387    0.5853494    31.132201 
 5670000    1.0012147   0.78381793    29.907284    61237.374    0.5852635     31.24654 
 5672000    1.0027655   0.72845324     29.91017    61241.431   0.58522473    31.154911 
 5674000    1.0055279   0.71664609    29.917014    61261.779   0.58503035    31.141987 
 5676000    1.0002549   0.75913464    29.906817     61263.91      0.58501    31.204461 
 5678000   0.99873383   0.71172295    29.907977    61257.185   0.58507422    31.124443 
 5680000    0.9986544   0.71360488     29.91182    61260.809   0.58503962    31.131575 
 5682000   0.99845844   0.74845161    29.909782    61252.492   0.58511905    31.188927 
 5684000   0.99671718    0.7642885     29.90811    61249.782   0.58514494    31.214263 
 5686000    1.0047651   0.73256761    29.910998    61246.823   0.58517321     31.16288 
 5688000    1.0001265   0.72893123    29.911534    61239.762   0.58524068    31.157058 
 5690000    0.9995009    0.7740458    29.917879    61242.263   0.58521678    31.240544 
 5692000    1.0071537   0.79565659    29.920556    61250.307   0.58513992    31.280327 
 5694000     1.005526   0.75200825    29.917867    61252.269   0.58512118    31.203085 
 5696000    1.0011771   0.74767931    29.911655    61248.634   0.58515591    31.189399 
 5698000    1.0021967   0.70285177    29.908267    61247.011   0.58517141    31.109371 
 5700000    0.9977889   0.74873083     29.90336    61245.111   0.58518957    31.182827 
 5702000     1.000011   0.77675012    29.910006    61256.013   0.58508541    31.237591 
 5704000    1.0055737     0.790585    29.911929    61251.608    0.5851275    31.263062 
 5706000    1.0035726   0.82499494    29.907436    61261.333   0.58503461      31.3176 
 5708000    1.0014114   0.72713454    29.908948    61263.026   0.58501844    31.151874 
 5710000     1.000677   0.73994992    29.912832    61251.227   0.58513114     31.17742 
 5712000    1.0009013   0.70726023    29.912292    61244.054   0.58519967    31.120872 
 5714000    1.0032872   0.76826138    29.919357    61254.129   0.58510342    31.232392 
 5716000    1.0017795   0.78265843    29.920872    61262.745   0.58502113    31.258701 
 5718000    0.9990666   0.73916071     29.91412    61261.304   0.58503489    31.177567 
 5720000    1.0064458    0.7278521    29.920058    61273.542   0.58491804    31.164424 
 5722000    1.0047443   0.72975377    29.919456    61284.765   0.58481092    31.167301 
 5724000    1.0033881   0.75177712    29.917465    61296.206   0.58470177    31.203209 
 5726000    1.0064443   0.77390512    29.923017    61303.045   0.58463654    31.246754 
 5728000    1.0040965   0.72683043    29.926548    61304.668   0.58462106    31.169798 
 5730000    1.0022445   0.75863151    29.921775    61308.283   0.58458659    31.219498 
 5732000   0.99976428    0.6874618     29.91871    61304.613   0.58462159    31.094619 
 5734000    1.0028131   0.74731839     29.91683     61305.52   0.58461293    31.195143 
 5736000    1.0087374   0.77415013    29.925208    61311.561   0.58455534    31.249548 
 5738000    1.0054633   0.77376323    29.925071    61309.763   0.58457248     31.24871 
 5740000     1.008989   0.75837626     29.92933    61317.943   0.58449449    31.226821 
 5742000    1.0089319   0.74220086    29.926411    61320.553   0.58446961    31.196282 
 5744000    1.0057553   0.73905777    29.923437    61310.452   0.58456591    31.187722 
 5746000    1.0059587   0.71499391    29.920741    61305.564   0.58461252    31.143762 
 5748000    1.0016649   0.81226764    29.913274    61304.622    0.5846215    31.302664 
 5750000   0.99815014   0.70231992    29.912567    61314.256   0.58452964     31.11408 
 5752000    1.0026196   0.78977964    29.918896    61307.486   0.58459419    31.269884 
 5754000    1.0002223   0.78796898    29.916561     61306.62   0.58460244    31.264433 
 5756000    1.0038259   0.75996474    29.916594    61310.343   0.58456695    31.216642 
 5758000    1.0052296   0.76861457    29.916627    61309.237   0.58457749    31.231447 
 5760000    1.0059299   0.77509255    29.918401    61324.483   0.58443216    31.244633 
 5762000   0.99947987   0.81545894    29.914991    61328.708    0.5843919    31.310388 
 5764000    1.0084485   0.80262285    29.918776    61325.908   0.58441858    31.292146 
 5766000   0.99886165   0.78103121    29.919856    61326.887   0.58440925    31.256302 
 5768000    1.0009284   0.73493699    29.911944    61326.521   0.58441274    31.169509 
 5770000    1.0047108    0.7860642    29.922786    61324.584    0.5844312    31.267793 
 5772000    1.0061483   0.73671193    29.912438    61327.203   0.58440624    31.173054 
 5774000    1.0066652   0.70084431    29.921191    61323.391   0.58444256    31.120358 
 5776000    0.9960695   0.74663185    29.911285    61320.083   0.58447409    31.188728 
 5778000    1.0053507   0.79689531    29.921406    61319.569   0.58447899    31.284834 
 5780000    1.0029792   0.73962586    29.917838    61327.934   0.58439927    31.183455 
 5782000    1.0004287   0.72761066      29.9195    61321.619   0.58445945     31.16443 
 5784000    1.0067233   0.72510746    29.918895    61314.322   0.58452901    31.159394 
 5786000    1.0060933   0.77424966    29.916324    61308.608   0.58458349    31.240771 
 5788000    1.0015213   0.69784816    29.916871     61302.22   0.58464441    31.110499 
 5790000   0.99999055   0.74147332    29.919045    61309.621   0.58457383    31.187444 
 5792000    1.0013886   0.73464467    29.909178    61300.649   0.58465939    31.165712 
 5794000    1.0019904   0.70321111    29.915457     61293.41   0.58472844    31.118086 
 5796000   0.99873054   0.77531264    29.913516    61290.496   0.58475624     31.23939 
 5798000   0.99883092   0.79161658    29.909001    61281.023   0.58484664    31.262546 
 5800000   0.99414065   0.71307568     29.90421    61279.426   0.58486188    31.123431 
 5802000    0.9945948   0.74427662    29.904186    61271.681    0.5849358    31.176593 
 5804000   0.99805186   0.74941044    29.909663    61278.304   0.58487258    31.190986 
 5806000   0.99884133   0.77837492    29.908116     61273.35   0.58491987    31.238854 
 5808000   0.99896147   0.73160282    29.907777    61267.372   0.58497695    31.158429 
 5810000    1.0012676   0.79860021    29.909849    61256.548   0.58508031     31.27479 
 5812000   0.99623732   0.81577866     29.90678    61255.641   0.58508897    31.301061 
 5814000   0.99782069   0.72071378    29.904908    61255.059   0.58509453    31.136698 
 5816000   0.99810548   0.73248087    29.903187    61255.199   0.58509319    31.155091 
 5818000   0.99485926   0.81644147    29.899729    61250.921   0.58513406    31.295036 
 5820000   0.99644532   0.72313699    29.898811    61243.941   0.58520075    31.134519 
 5822000   0.99475793   0.76916671    29.895991    61241.275   0.58522622    31.210297 
 5824000   0.99637287   0.77851672    29.904228    61228.083   0.58535232    31.234225 
 5826000   0.99752652   0.81885576    29.901175    61236.265   0.58527411    31.300273 
 5828000   0.99705526   0.71109874    29.895221    61235.118   0.58528507    31.110183 
 5830000   0.99369582   0.78929069    29.893787    61228.886   0.58534464    31.242207 
 5832000   0.99691609   0.75413905    29.901702    61223.312   0.58539793    31.189953 
 5834000   0.99897181   0.77889247    29.901458    61216.576   0.58546234    31.231846 
 5836000   0.99483064   0.77578428    29.896251    61212.325     0.585503    31.221239 
 5838000    0.9963625   0.74918921    29.900036    61206.514   0.58555858    31.179479 
 5840000   0.99513528   0.71000528    29.903011    61199.889   0.58562198    31.115406 
 5842000   0.99732786   0.77842196    29.899105     61191.85   0.58569891    31.228153 
 5844000   0.99493679   0.75117712    29.908899    61190.645   0.58571044    31.191405 
 5846000    0.9986386   0.75027306     29.91016    61194.193   0.58567649    31.191197 
 5848000     1.000545   0.71784091    29.914923    61196.655   0.58565292    31.140634 
 5850000    1.0000626    0.7225236     29.91046    61198.083   0.58563926    31.144195 
 5852000   0.99985826   0.71947269    29.912166    61203.286   0.58558947    31.140796 
 5854000   0.99932325   0.79041956    29.907854    61203.913   0.58558347    31.257652 
 5856000    1.0041481   0.74868889    29.904722    61195.171   0.58566712    31.183074 
 5858000   0.99492168   0.73804262    29.896026    61190.418   0.58571262    31.156102 
 5860000   0.99308673   0.69516855    29.898887    61188.027   0.58573551    31.085717 
 5862000   0.99490155    0.6987644    29.906139    61182.449   0.58578891    31.098999 
 5864000   0.99744541   0.80050695    29.901921    61194.076    0.5856776    31.268726 
 5866000   0.99756071   0.73601606     29.90414    61207.243   0.58555161    31.161102 
 5868000   0.99808629    0.7308807    29.903338    61205.347   0.58556975    31.151491 
 5870000    1.0013737   0.76894891    29.909279    61200.714   0.58561408    31.222344 
 5872000   0.99627551   0.73570717    29.906247    61207.558    0.5855486    31.162688 
 5874000    1.0023129   0.75875886    29.909719    61212.706   0.58549936    31.205637 
 5876000    1.0062968   0.82609304    29.912942    61214.356   0.58548357      31.3239 
 5878000   0.99834652   0.74519473    29.911265    61225.358   0.58537837    31.184279 
 5880000   0.99195323   0.76534091    29.906148    61229.217   0.58534147    31.213659 
 5882000    1.0067936   0.76907535    29.913101    61231.379    0.5853208    31.227039 
 5884000    1.0000096   0.75293313    29.906181     61243.73   0.58520277      31.1928 
 5886000   0.99728558   0.73848258    29.904086    61236.578   0.58527111    31.165864 
 5888000   0.99776921   0.73412485    29.911591    61237.656   0.58526081    31.165946 
 5890000   0.99628775   0.73284642    29.906494    61240.414   0.58523445    31.158721 
 5892000   0.99391665   0.68113709    29.911249     61233.91   0.58529661    31.074996 
 5894000    0.9941532   0.76287953    29.906927    61236.405   0.58527277    31.210387 
 5896000    1.0012685   0.74539775    29.906428    61234.935   0.58528682    31.179987 
 5898000    1.0044566   0.78105199    29.904353    61234.356   0.58529235    31.238818 
 5900000    1.0010996   0.76859449    29.904929      61234.1    0.5852948    31.218104 
 5902000    1.0012702   0.76380087    29.902612    61230.266   0.58533144    31.207515 
 5904000   0.99681888   0.74191926    29.903043    61232.649   0.58530866    31.170612 
 5906000   0.99629397   0.80169032    29.901226    61236.974   0.58526732    31.271011 
 5908000   0.99576177   0.74843164    29.909772     61232.38   0.58531123    31.188462 
 5910000   0.99865302   0.68651773    29.911678    61241.485   0.58522422    31.084763 
 5912000    1.0051404    0.7780258    29.916069    61250.494   0.58513814    31.245714 
 5914000   0.99908287   0.73728672    29.914799    61248.513   0.58515706     31.17478 
 5916000    1.0066936    0.6991844     29.91542     61255.66   0.58508879    31.110426 
 5918000    1.0011791   0.75844496    29.921266    61252.312   0.58512077    31.217486 
 5920000   0.99778782   0.78311695    29.910953    61247.524   0.58516652    31.249234 
 5922000   0.99805733   0.84980078    29.912456    61242.034   0.58521897    31.364563 
 5924000   0.99645659   0.76955582    29.909979    61243.355   0.58520634    31.224995 
 5926000    0.9951287   0.68910189    29.902575    61241.758   0.58522161     31.08008 
 5928000   0.99315705   0.77955837    29.895303     61229.01   0.58534345      31.2271 
 5930000   0.99169121   0.73252715    29.896074      61218.4    0.5854449    31.147306 
 5932000   0.98577432   0.76811877     29.89006    61202.691   0.58559517    31.201749 
 5934000   0.99201666   0.75574487    29.890096    61186.355   0.58575152     31.18031 
 5936000   0.99182767   0.68299215    29.888828    61171.677   0.58589206    31.054558 
 5938000   0.99586369   0.68232182    29.900568     61163.27    0.5859726    31.064994 
 5940000   0.99836819   0.73283724    29.903359    61162.643    0.5859786     31.15398 
 5942000   0.99217656   0.71846265    29.891783    61157.418   0.58602866    31.117768 
 5944000   0.99459364   0.67988661    29.897403    61154.321   0.58605834    31.057503 
 5946000   0.99296521   0.69987886     29.89057    61154.501   0.58605661    31.084787 
 5948000   0.99230553   0.74934959    29.890021    61166.246   0.58594408    31.168896 
 5950000   0.99318967   0.78908101    29.886275    61167.617   0.58593095    31.232988 
 5952000   0.99011637   0.74816821    29.898598    61162.444   0.58598051    31.175378 
 5954000   0.99041648   0.72224358    29.894342    61175.275    0.5858576    31.127139 
 5956000   0.99747156   0.76564742     29.90178    61175.831   0.58585228    31.208675 
 5958000   0.99585605   0.71951993    29.901387    61191.952   0.58569794     31.12987 
 5960000   0.99526711   0.71390404    29.899987    61202.491   0.58559708    31.119091 
 5962000   0.99410471   0.76301781    29.902024    61208.575   0.58553887    31.205128 
 5964000    1.0015355   0.77727016    29.908752    61205.363    0.5855696    31.236127 
 5966000   0.99975151    0.7394186    29.903956    61213.899   0.58548795    31.166866 
 5968000   0.99762694   0.70488089     29.90865    61218.682    0.5854422    31.112664 
 5970000   0.99989562   0.70480888     29.90683    61221.646   0.58541386     31.11078 
 5972000   0.99739299   0.73136327    29.909861    61230.303   0.58533109    31.159347 
 5974000   0.99730728   0.74910036    29.907192    61225.299   0.58537893    31.186877 
 5976000     0.998573   0.73021895    29.906755    61236.937   0.58526767    31.154421 
 5978000   0.99590569   0.71531387    29.903704    61238.493   0.58525281    31.125934 
 5980000    1.0004447   0.76329215    29.908079    61230.646   0.58532781    31.212122 
 5982000   0.99740933   0.72544077    29.917573    61238.809   0.58524979    31.157114 
 5984000    1.0050671   0.77861843    29.922276    61243.978   0.58520039    31.252792 
 5986000    1.0081231   0.77077626     29.92546    61257.615   0.58507012    31.242868 
 5988000    1.0051744   0.80042246    29.935172     61267.84   0.58497247     31.30348 
 5990000    1.0108201   0.77436431     29.92695    61287.957   0.58478046    31.251147 
 5992000    1.0051014   0.74055691    29.916073    61290.331   0.58475782    31.182506 
 5994000    1.0042015   0.74538697    29.915756     61285.06   0.58480811     31.19034 
 5996000    1.0017729   0.78032777    29.916104    61277.055    0.5848845    31.250261 
 5998000    1.0003849   0.75009856    29.909108    61279.852   0.58485781     31.19164 
 6000000    1.0007291   0.76575417    29.905289    61279.453   0.58486162     31.21458 
Loop time of 3922 on 32 procs for 2000000 steps with 35840 atoms

Performance: 220295.716 tau/day, 509.944 timesteps/s
99.9% CPU use with 32 MPI tasks x 1 OpenMP threads

MPI task timing breakdown:
Section |  min time  |  avg time  |  max time  |%varavg| %total
---------------------------------------------------------------
Pair    | 103.95     | 349.04     | 1240.8     |1473.0 |  8.90
Bond    | 63.91      | 108.22     | 284.04     | 500.5 |  2.76
Neigh   | 459.96     | 462.24     | 464.57     |   5.2 | 11.79
Comm    | 285.88     | 1187.7     | 1692.1     |1143.0 | 30.28
Output  | 1.2591     | 1.262      | 1.2681     |   0.1 |  0.03
Modify  | 1544.1     | 1784.3     | 2359.9     | 586.7 | 45.50
Other   |            | 29.23      |            |       |  0.75

Nlocal:        1120.00 ave        1506 max         974 min
Histogram: 6 14 2 3 1 1 3 0 0 2
Nghost:        2651.19 ave        2971 max        2449 min
Histogram: 5 6 4 3 3 3 4 0 1 3
Neighs:        10393.6 ave       33432 max        3172 min
Histogram: 13 7 4 1 1 1 2 1 1 1

Total # of neighbors = 332595
Ave neighs/atom = 9.2799944
Ave special neighs/atom = 2.3459821
Neighbor list builds = 140027
Dangerous builds = 0
unfix 2

fix 2 all press/berendsen iso 1 1 $(1000*dt*5)
fix 2 all press/berendsen iso 1 1 25
run 14000000
Per MPI rank memory allocation (min/avg/max) = 11.59 | 11.67 | 11.71 Mbytes
Step Temp Press TotEng Volume Density Enthalpy 
 6000000    1.0007291   0.81674197    29.905288    61279.453   0.58486162    31.301758 
 6002000   0.99698474   0.76609171    29.897015    60711.377   0.59033416    31.194741 
 6004000    1.0069306    0.7792892    29.905513    60207.059   0.59527904    31.214628 
 6006000    1.0017376   0.79118229    29.897997     59772.27   0.59960914    31.217494 
 6008000    1.0072861    0.8040371    29.899022    59395.441   0.60341332    31.231503 
 6010000    1.0024904    0.8705045    29.885795    59067.211   0.60676641    31.320456 
 6012000    1.0018824   0.94478062    29.886814    58779.574   0.60973562    31.436306 
 6014000    1.0025074   0.89073475    29.882454    58539.259    0.6122387    31.337336 
 6016000   0.99807396    0.8513316    29.875709     58315.82   0.61458452    31.260924 
 6018000    1.0027818    0.9827919    29.880481    58137.492   0.61646966    31.474707 
 6020000    1.0053026   0.98213347     29.87528    57972.351   0.61822575    31.463912 
 6022000   0.99542021   0.91980167    29.866167    57829.993   0.61974761    31.350323 
 6024000   0.99859167    1.0129693     29.85644     57707.54   0.62106269    31.487466 
 6026000   0.99812031    1.0375052    29.864269    57587.232   0.62236018    31.531319 
 6028000    1.0027147   0.98486136    29.855139    57501.584   0.62328718    31.435247 
 6030000   0.99777037   0.97014664    29.856192    57419.868    0.6241742     31.41048 
 6032000   0.99977655   0.99107346    29.857799    57348.259   0.62495358    31.443634 
 6034000   0.99427978   0.99813822    29.846601    57291.265   0.62557529    31.442153 
 6036000   0.99844542   0.98929803    29.848941    57233.778   0.62620364    31.428775 
 6038000   0.99136855   0.98337928    29.849176    57185.605   0.62673115    31.418237 
 6040000   0.99514343   0.95633437     29.84942     57142.23   0.62720689    31.374171 
 6042000   0.99420245     1.036928    29.847465    57105.723   0.62760785    31.499656 
 6044000    1.0003604   0.92044222    29.856041    57073.195   0.62796555    31.321793 
 6046000   0.99693061   0.98863096    29.857472    57056.941   0.62814444    31.431363 
 6048000    1.0011689    1.0255818    29.853452    57044.523   0.62828117    31.485813 
 6050000    0.9999263   0.97123249     29.84867    57032.341   0.62841538    31.394196 
 6052000   0.99582441    1.0624701    29.852084     57012.78   0.62863099    31.542217 
 6054000   0.99974727   0.98450519    29.854548    56994.715   0.62883023    31.420162 
 6056000   0.99561344   0.99050226     29.84898    56989.606   0.62888661    31.423989 
 6058000    1.0009818     1.016784    29.850928    56979.768   0.62899519    31.467449 
 6060000     1.001044   0.98509715     29.85585    56970.308   0.62909963    31.421734 
 6062000   0.99627508    1.0099572    29.849054     56959.35   0.62922066    31.454146 
 6064000   0.99413751   0.97468165    29.852182    56950.012   0.62932384    31.400958 
 6066000   0.99496705    1.0162757    29.851008    56943.237   0.62939871    31.465685 
 6068000     1.001233   0.98964783    29.858267    56931.204   0.62953174    31.430305 
 6070000   0.99913513    1.0452565    29.853334    56921.176   0.62964265    31.513413 
 6072000   0.99706446   0.99229755    29.850782    56919.783   0.62965806    31.426712 
 6074000    1.0008137   0.98376844    29.849746    56917.229   0.62968631    31.412061 
 6076000    1.0030186   0.96684235    29.854396     56916.83   0.62969073     31.38982 
 6078000   0.99879376    0.9421935    29.850356    56929.803   0.62954723    31.346977 
 6080000   0.99868399     1.023718    29.849761    56941.584   0.62941698    31.476215 
 6082000   0.99935353     1.038199    29.844712    56933.677    0.6295044    31.493945 
 6084000   0.99847292    1.0354042    29.842641    56933.903    0.6295019     31.48744 
 6086000    1.0007475    1.0152231    29.853288    56930.595   0.62953848    31.465935 
 6088000   0.99551518     1.041052    29.842122    56925.837    0.6295911    31.495658 
 6090000   0.99145429   0.95734712    29.834655    56911.572    0.6297489    31.354859 
 6092000   0.98672783   0.98374677    29.830148    56904.499   0.62982717    31.392079 
 6094000   0.99271644    0.9547088    29.836897    56890.545   0.62998167    31.352352 
 6096000   0.99369443   0.94793442    29.837888    56879.166   0.63010769    31.342289 
 6098000   0.99010958    1.0187321    29.840606    56879.631   0.63010254    31.457378 
 6100000   0.99694214    1.0232107    29.838133    56870.499   0.63020372    31.461752 
 6102000   0.98722663   0.99201062    29.845392    56862.626   0.63029097    31.419285 
 6104000   0.99534378   0.98774932    29.844607    56859.787   0.63032245    31.411661 
 6106000   0.99538444   0.93362668    29.846112    56866.874    0.6302439    31.327486 
 6108000   0.99608903    1.0105359    29.849513    56862.335    0.6302942     31.45279 
 6110000    1.0014593    1.0157152     29.84562    56870.494   0.63020378    31.457345 
 6112000     1.004247    1.0029716    29.851836    56880.605   0.63009175    31.443622 
 6114000   0.99939494   0.99082321    29.856759    56889.648   0.62999159    31.429515 
 6116000    1.0005871   0.99971802     29.85408     56902.72   0.62984686    31.441319 
 6118000   0.99820822    1.0585003    29.864276    56900.432   0.62987219    31.544777 
 6120000     1.000633    1.0478566    29.854277    56914.235   0.62971943    31.518283 
 6122000   0.99837829   0.96552464    29.863055    56921.321   0.62964105    31.396508 
 6124000    1.0045886    1.0334407     29.85349    56938.439   0.62945174    31.495301 
 6126000   0.99944971   0.99278228    29.856785    56938.184   0.62945456    31.433995 
 6128000    1.0059625    1.0435892    29.859938    56942.898   0.62940245    31.518001 
 6130000   0.99959123    1.0427073    29.863988     56945.71   0.62937138    31.520732 
 6132000    1.0075041   0.93485196    29.864322    56956.712    0.6292498    31.349983 
 6134000    1.0056062    1.0450362      29.8668    56970.881   0.62909331    31.527979 
 6136000    1.0023524    1.1283733    29.866526    56978.352   0.62901082    31.660411 
 6138000    1.0057074   0.98279845    29.858259    56991.324   0.62886765    31.421065 
 6140000    1.0041498   0.96264141    29.865619    56988.733   0.62889624    31.396303 
 6142000    1.0067937   0.96674525     29.87468    56984.144   0.62894689    31.411766 
 6144000    1.0014707   0.94185203     29.87104    56981.471   0.62897639    31.368476 
 6146000    1.0047363     1.027284    29.870453    56997.338    0.6288013    31.504171 
 6148000    1.0066919   0.99170485    29.864283     57006.45   0.62870079    31.441671 
 6150000     1.006214    1.0292079    29.869315    57012.672   0.62863218    31.506533 
 6152000    1.0009449   0.99165826    29.860206    57015.971   0.62859581    31.437783 
 6154000     1.003169    0.9827251    29.860103    57013.186   0.62862651    31.423393 
 6156000    1.0027247   0.97013821    29.863592    57021.384   0.62853613     31.40708 
 6158000    1.0033854    1.0395283    29.863544    57015.149   0.62860486    31.517251 
 6160000    1.0032246    1.0187062    29.865335    57011.666   0.62864327    31.485819 
 6162000     1.004032    1.0056941     29.86541    57015.222   0.62860406    31.465295 
 6164000    1.0048945    1.0287832    29.859711    57020.039   0.62855096    31.496465 
 6166000   0.99749894   0.98928409    29.855139    57008.751   0.62867541     31.42874 
 6168000   0.99007039   0.96926387    29.849145    57008.607     0.628677    31.390897 
 6170000    1.0021215   0.96538799    29.850466    56989.442   0.62888842    31.385536 
 6172000   0.99453797     1.035801    29.856476    56978.888   0.62900491    31.503205 
 6174000    1.0000543    1.0185658    29.863454    56981.045    0.6289811    31.482844 
 6176000    1.0036332   0.91457154    29.862039    56978.703   0.62900695    31.316032 
 6178000    1.0015242    1.0362671    29.857933    56978.989   0.62900379    31.505407 
 6180000    1.0020024    1.0225779    29.859579    56985.575    0.6289311    31.485477 
 6182000    1.0059403   0.97714376    29.860626    56992.862   0.62885068    31.414483 
 6184000     1.005627    1.0033363    29.869642    56996.938    0.6288057    31.465264 
 6186000    1.0079113   0.95382343    29.873849    57006.196   0.62870359    31.390976 
 6188000    1.0059863   0.97474814    29.871398    57006.726   0.62869775    31.421823 
 6190000    1.0026205    1.0088938    29.857849    57014.498   0.62861204    31.462803 
 6192000      1.00715   0.98334919    29.866875    57005.844   0.62870747    31.430956 
 6194000    1.0009117    1.0785154    29.864348    57007.201    0.6286925    31.579838 
 6196000    1.0070421    1.0271864    29.871344    57014.856   0.62860809    31.505409 
 6198000     1.005671   0.98595488    29.863251    57012.845   0.62863027    31.431669 
 6200000    1.0038017    1.0506154    29.869508    57017.442   0.62857958     31.54092 
 6202000    1.0071751   0.96442301    29.869139    57034.228   0.62839458     31.40388 
 6204000    1.0099064   0.99297045    29.869369    57052.169   0.62819697    31.450036 
 6206000    1.0041592   0.97406903    29.869639    57046.127   0.62826351    31.420054 
 6208000    1.0075226   0.95931023    29.862215    57037.102   0.62836292    31.388897 
 6210000   0.99972189   0.99516957    29.853181    57041.192   0.62831787    31.437044 
 6212000     1.002186   0.99836444    29.861801    57035.713   0.62837823    31.450597 
 6214000    1.0049032    1.0145566    29.858206     57027.24   0.62847158     31.47253 
 6216000    0.9998557   0.98183509    29.853458    57024.282   0.62850418    31.415636 
 6218000    1.0011653    1.0476889    29.860734    57008.589   0.62867719    31.527231 
 6220000    1.0000424    1.0242369    29.858117    56998.367   0.62878995    31.487019 
 6222000     1.002279    1.0601024    29.850839    56990.116   0.62888098    31.536535 
 6224000   0.99752718   0.96001304    29.861812    56981.134   0.62898011    31.388113 
 6226000   0.99676384    1.0389662    29.852755    56984.181   0.62894648     31.50467 
 6228000    1.0005231     0.988044    29.863386    56982.774   0.62896201    31.434298 
 6230000     1.003528    1.0121947    29.855443    56974.218   0.62905647    31.464511 
 6232000    1.0023809    1.0495177    29.865571    56979.481   0.62899836    31.534125 
 6234000    1.0068315   0.98179106    29.868069    56987.641   0.62890829    31.429172 
 6236000    1.0006969   0.97677709    29.864948    56999.115    0.6287817    31.418391 
 6238000   0.99703096   0.96526302    29.863479     57005.53   0.62871093    31.398784 
 6240000    1.0041274    1.0067175    29.862527    57007.322   0.62869117    31.463818 
 6242000     1.003069   0.96386481     29.86155    57008.964   0.62867306    31.394723 
 6244000     1.006288    1.0074422    29.866232    57008.916   0.62867359     31.46872 
 6246000    1.0037675   0.94360709    29.863612    57021.495   0.62853491    31.364892 
 6248000    1.0019249   0.99114575    29.858815    57018.175    0.6285715    31.435637 
 6250000   0.99835796    1.0315534    29.863617    57020.879    0.6285417    31.504802 
 6252000    1.0011443    1.0547082    29.853339    57012.591   0.62863306     31.53112 
 6254000   0.99940099    1.0272854    29.861702    56995.743    0.6288189    31.495377 
 6256000    1.0009903    1.0036626    29.859834    57004.855   0.62871837    31.456196 
 6258000    1.0069143    1.0089494    29.857091    56998.323   0.62879043    31.461679 
 6260000    1.0042262   0.99005009    29.862721    57008.749   0.62867543     31.43754 
 6262000    1.0052641   0.95692438    29.861706    57009.205    0.6286704    31.383846 
 6264000     1.003176   0.98831097      29.8652    57005.307   0.62871339    31.437158 
 6266000    1.0088721    1.0416096    29.862854    57006.157   0.62870402    31.519611 
 6268000    1.0015998    1.0398678    29.863646    57015.164   0.62860469    31.517894 
 6270000    1.0064524    1.0407168    29.866741    57017.609   0.62857775     31.52241 
 6272000    1.0041142    1.0287179    29.862339    57016.042   0.62859502    31.498874 
 6274000    1.0002027   0.98789594    29.856393    57022.392   0.62852502    31.428162 
 6276000   0.99767173    1.0762335    29.854916    57003.266   0.62873591    31.566658 
 6278000   0.99512409    1.0037532     29.84779    57005.939   0.62870642    31.444327 
 6280000    1.0018121   0.99629267    29.860328    56997.035   0.62880463    31.444751 
 6282000   0.99739462   0.97785163    29.855645    56995.234   0.62882451    31.410692 
 6284000    0.9960672    1.0093345     29.85445    57002.823   0.62874079    31.459777 
 6286000    1.0046779    1.0214485    29.860357    57003.016   0.62873866    31.484956 
 6288000    1.0016088     1.019857    29.863564    57007.129    0.6286933    31.485749 
 6290000    1.0021371    1.0017657    29.862362    57002.799   0.62874105     31.45565 
 6292000    1.0005189   0.96746709    29.862907    57002.868   0.62874029    31.401645 
 6294000   0.99889359    1.0181587     29.86185    57004.547   0.62872177    31.481261 
 6296000     1.003269    0.9916922    29.865688    57015.053   0.62860593    31.443293 
 6298000    1.0003026    1.0407746    29.865842    57015.919   0.62859637    31.521554 
 6300000   0.99859884   0.95790359    29.857477    57016.206   0.62859321    31.381362 
 6302000     1.003871   0.95794933    29.867364    57007.503   0.62868917    31.391089 
 6304000    1.0065582   0.97140351    29.875303     57013.63   0.62862161    31.420595 
 6306000    1.0007408   0.99273853    29.865602    57013.934   0.62861826    31.444841 
 6308000    1.0079197   0.96408324    29.863968     57013.51   0.62862294    31.397611 
 6310000    1.0026897    1.0024325    29.858094    57009.717   0.62866476    31.452637 
 6312000   0.99997606    1.0318602    29.855384    56999.424   0.62877828    31.496439 
 6314000    1.0039222    1.0176721     29.85539    56995.147   0.62882546     31.47376 
 6316000     1.003195   0.96408531    29.860812    56989.318   0.62888978    31.393807 
 6318000   0.99892113   0.99534919    29.852632    56984.444   0.62894357    31.435206 
 6320000    1.0020288   0.99862432    29.855986    56985.009   0.62893734    31.443782 
 6322000    1.0034395   0.96923911    29.854636    56982.169   0.62896869    31.395634 
 6324000   0.99532701   0.97844678    29.856778    56971.481   0.62908668    31.412122 
 6326000    1.0089834   0.98521764    29.870058     56975.02    0.6290476    31.436263 
 6328000   0.99543469    1.0237636    29.850165    56973.036   0.62906952     31.47759 
 6330000    1.0009295    1.0302794    29.854224    56974.938   0.62904851    31.492062 
 6332000    0.9930397   0.97068032    29.850625    56967.603    0.6291295    31.393519 
 6334000   0.98983212    1.0252822    29.851736     56956.79   0.62924894    31.481111 
 6336000   0.99734382   0.98700134    29.851905    56939.762   0.62943713    31.419975 
 6338000     1.001974   0.99953001    29.855044    56937.421   0.62946301    31.442953 
 6340000    1.0039747    1.0361965    29.856869     56943.16   0.62939956    31.503195 
 6342000   0.99536553    1.0199572    29.852322    56941.435   0.62941863    31.472797 
 6344000     1.002141   0.96430619     29.86416    56944.982   0.62937942    31.396314 
 6346000    1.0042406    0.9181487    29.858472    56955.695   0.62926105    31.317563 
 6348000    1.0001295    1.0363567    29.853641    56962.231   0.62918884    31.500773 
 6350000     1.001585    0.9519396    29.852563    56950.079   0.62932309    31.365204 
 6352000    1.0078826    1.0034095    29.861096     56949.99   0.62932408     31.45552 
 6354000   0.99823134   0.97439506    29.850101    56953.022   0.62929057    31.398503 
 6356000   0.99801964     1.052939    29.858027    56951.185   0.62931087    31.531189 
 6358000   0.99808511    1.0117246    29.851144    56952.483   0.62929653    31.458852 
 6360000   0.99691885   0.96826717    29.843261    56950.743   0.62931576    31.381864 
 6362000   0.99690286    1.0511322    29.851123    56950.983   0.62931311    31.521407 
 6364000   0.99757643    1.0844391    29.850181    56951.492   0.62930748    31.573407 
 6366000   0.99656342   0.94703713    29.847199    56947.687   0.62934953    31.351986 
 6368000   0.99632768   0.94902441    29.857696    56943.216   0.62939895    31.365523 
 6370000   0.99953299    1.0135636    29.858952    56948.388   0.62934178    31.469466 
 6372000   0.99929758    1.0265973    29.854854    56956.942   0.62924726    31.486322 
 6374000     1.001858    1.0526277    29.855224    56958.129   0.62923416    31.528095 
 6376000    1.0020837    0.9492665    29.857505    56963.348    0.6291765     31.36625 
 6378000   0.99778476    1.0531918     29.85076    56956.211   0.62925534    31.524471 
 6380000   0.99596492    1.0251106    29.850491    56941.981   0.62941259     31.47917 
 6382000   0.99879916   0.95824646    29.844735    56933.434   0.62950708    31.366953 
 6384000   0.99546213    1.0037951    29.844973    56920.966   0.62964497    31.439197 
 6386000    1.0000278    1.0195809    29.846054    56918.911    0.6296677     31.46529 
 6388000   0.99581514   0.99822745    29.842954    56912.846    0.6297348    31.428109 
 6390000   0.99199332   0.95518412    29.836896    56899.256   0.62988522    31.353338 
 6392000   0.99253559    1.0739264    29.839797    56884.247   0.63005141    31.544303 
 6394000   0.99446419    0.9992351    29.834404    56883.941    0.6300548    31.420354 
 6396000   0.99738643    0.9831973    29.844056    56881.373   0.63008324     31.40448 
 6398000   0.99593859    1.0289724    29.847337    56882.896   0.63006637    31.480454 
 6400000    1.0003777    1.0289402    29.854446    56884.116   0.63005286    31.487548 
 6402000   0.99745422   0.98937646    29.847852    56889.338   0.62999503    31.418304 
 6404000   0.99875669    1.0034562    29.850657    56889.425   0.62999407    31.443459 
 6406000   0.99971876   0.98630664    29.847822    56881.997   0.63007633    31.413199 
 6408000   0.99632783    1.0384772    29.851723    56881.002   0.63008736    31.499871 
 6410000   0.99935569   0.95382789     29.85046    56879.389   0.63010522     31.36422 
 6412000   0.99484621    1.0682849    29.839841    56879.301   0.63010619    31.535245 
 6414000   0.99222014    1.0154292    29.846339    56872.444   0.63018216    31.457666 
 6416000   0.99631827    1.0433882     29.84308    56876.451   0.63013777    31.498889 
 6418000   0.98898699    1.0295621    29.839383    56872.127   0.63018568    31.473127 
 6420000   0.99847924   0.99401635    29.840432    56873.847   0.63016662    31.417818 
 6422000   0.98789144   0.93860725    29.840722    56877.643   0.63012457    31.330281 
 6424000   0.99260108   0.96692857    29.844822    56865.164   0.63026285    31.378989 
 6426000   0.99955669   0.97008477    29.852034    56872.143   0.63018551    31.391398 
 6428000   0.99291254    1.0122783    29.844751    56877.343   0.63012788    31.451215 
 6430000   0.99718395   0.99888846    29.850077     56881.35   0.63008349    31.435404 
 6432000   0.99566856     1.037481    29.845556    56880.982   0.63008757    31.492122 
 6434000   0.99651755    1.0504524    29.846044    56875.838   0.63014456    31.513046 
 6436000   0.99938009   0.94269455    29.850008    56874.428   0.63016018    31.345968 
 6438000   0.99796696   0.96963447    29.853342    56874.526    0.6301591    31.392056 
 6440000    1.0008945   0.93037667    29.856354    56886.035    0.6300316    31.333068 
 6442000   0.99967093    0.9798467    29.851956    56889.549   0.62999269    31.407286 
 6444000    1.0000366   0.93759563    29.843488    56888.517   0.63000412    31.331725 
 6446000   0.99691817    1.0262167    29.846602    56889.902   0.62998878    31.475546 
 6448000   0.99981703    0.9539946    29.850537    56905.551   0.62981553    31.365258 
 6450000    1.0015779    0.9814861    29.861075    56922.554   0.62962741    31.419911 
 6452000    1.0041106   0.96099375    29.858311    56923.606   0.62961577    31.384629 
 6454000    1.0006986    1.0253918    29.867219    56938.929   0.62944633    31.496257 
 6456000    1.0099342   0.96918563    29.874596    56950.086   0.62932302    31.414641 
 6458000    1.0055849   0.89805237    29.872281    56964.778   0.62916071    31.299662 
 6460000    1.0027787   0.98708217    29.862789     56968.39   0.62912082    31.431775 
 6462000    1.0051652    1.0183038    29.866763    56965.986   0.62914737    31.485309 
 6464000     1.005468    1.0297254    29.874156    56966.546   0.62914119    31.510872 
 6466000    1.0094583   0.92657096    29.869674     56963.52    0.6291746    31.342351 
 6468000    1.0070622    1.0161474    29.860023    56968.665   0.62911778    31.475217 
 6470000    1.0014098    1.0377799      29.8591    56964.011   0.62916918    31.508544 
 6472000   0.99572054   0.96630782    29.856826    56965.688   0.62915065    31.392719 
 6474000   0.99584852   0.99558146    29.853102    56962.477   0.62918612    31.435434 
 6476000    1.0001154    0.9999686    29.853302    56942.383   0.62940816    31.442046 
 6478000   0.99983629   0.97374457    29.855786    56941.771   0.62941492    31.402849 
 6480000    0.9996716    1.0319061    29.859754    56940.003   0.62943446    31.499172 
 6482000    1.0045121    1.0350434    29.859864    56940.333   0.62943081    31.504275 
 6484000    1.0071394    1.0096653     29.86908    56954.993   0.62926879    31.473585 
 6486000    1.0077359    1.0105938    29.867103    56971.132   0.62909054    31.473539 
 6488000    1.0075112    1.0133844     29.85754     56972.22   0.62907852    31.468443 
 6490000    1.0018276   0.99377997    29.856616    56974.519   0.62905314    31.436419 
 6492000    1.0065932    1.0224526    29.863799    56978.259   0.62901185    31.489289 
 6494000    1.0073832    1.0502794     29.86654    56991.458   0.62886617    31.536656 
 6496000     1.005367   0.96613431    29.862053     56997.23   0.62880249     31.39852 
 6498000    1.0021325   0.93256313    29.861527    57004.722   0.62871985      31.3448 
 6500000    1.0014983    1.0504826    29.864866    57007.684   0.62868718     31.53578 
 6502000    1.0021422   0.90038537    29.860726    57002.098   0.62874878    31.292753 
 6504000   0.99693336   0.96508104    29.865072    57003.213   0.62873649    31.400025 
 6506000    1.0009244    1.0578585    29.859362    56990.091   0.62888126     31.54149 
 6508000   0.99958987    0.9908835    29.853166    56987.947   0.62890491    31.428735 
 6510000    1.0021023   0.89571778    29.855559    56975.257   0.62904499    31.279492 
 6512000    1.0024458    1.1099162    29.860227    56975.093    0.6290468    31.624669 
 6514000    1.0053913   0.89981595    29.870422    56979.236   0.62900106     31.30097 
 6516000   0.99753677   0.99782718    29.849189     56978.72   0.62900676    31.435542 
 6518000   0.99920681   0.91126905    29.861338    56986.344   0.62892261    31.310275 
 6520000    1.0003148      1.01133    29.857848    56991.475   0.62886598    31.466029 
 6522000    1.0012292   0.98118641    29.855128    56989.422   0.62888864    31.415319 
 6524000    1.0018887   0.97422482    29.851468    56982.557    0.6289644    31.400403 
 6526000   0.99527784    1.0576069    29.852914    56974.031   0.62905853    31.534167 
 6528000    1.0050848    1.0063539     29.85454    56975.082   0.62904692    31.454348 
 6530000    1.0040069    1.0239841    29.852387     56988.27   0.62890136    31.480598 
 6532000    1.0015884    1.0142974    29.859242     56991.79    0.6288625     31.47215 
 6534000    0.9995265   0.93724499    29.861217    56979.346   0.62899985    31.351273 
 6536000    1.0064459      1.02479    29.860464     56966.99   0.62913627    31.489348 
 6538000    1.0011929   0.95835142    29.857486    56972.915   0.62907085    31.380926 
 6540000    1.0009739   0.92410369    29.853779    56976.828   0.62902764    31.322877 
 6542000   0.99445951   0.98893303    29.852411    56978.216   0.62901232    31.424611 
 6544000   0.99974634   0.95082057    29.850678    56968.799    0.6291163    31.362037 
 6546000   0.99522919   0.98541538    29.842061    56955.738   0.62926056     31.40805 
 6548000     1.000977   0.97124198    29.854301    56967.133   0.62913469    31.398076 
 6550000   0.99718851   0.96706965    29.852707    56962.432   0.62918662    31.389722 
 6552000    1.0020065    1.0113297    29.846688    56959.579   0.62921814    31.453968 
 6554000   0.99904396    1.0319986    29.844321    56949.913   0.62932493    31.484171 
 6556000   0.99648184    1.0141869    29.846049    56939.522   0.62943978    31.457302 
 6558000   0.99845382    1.0802202    29.847651    56934.104   0.62949968     31.56365 
 6560000     1.000012    1.0404031    29.840472    56929.387   0.62955183    31.493081 
 6562000     1.000401   0.98537133     29.85073    56920.123   0.62965429     31.41567 
 6564000   0.99764655   0.98159606    29.846216    56931.987   0.62952308    31.405486 
 6566000    1.0014194    0.9545872    29.855526    56934.229   0.62949829    31.371952 
 6568000    1.0025482     1.026989    29.852181    56936.745   0.62947048    31.483694 
 6570000   0.99676312   0.97466919    29.847625    56933.174   0.62950996    31.395923 
 6572000   0.99773201   0.98960722     29.84589    56927.986   0.62956733    31.417775 
 6574000   0.99881688   0.97839279    29.853289    56931.501   0.62952846    31.407457 
 6576000   0.99891219   0.95640585    29.849895    56938.412   0.62945204    31.369321 
 6578000   0.99539949    1.0307714    29.849914    56954.223   0.62927731    31.487939 
 6580000    1.0003129    1.0127553     29.85269    56947.101     0.629356    31.461883 
 6582000    1.0012409   0.96157908    29.853745    56950.963   0.62931332    31.381727 
 6584000    1.0033701    0.9466339    29.856642    56961.374    0.6291983     31.36115 
 6586000    1.0014556   0.97619289    29.853044    56971.365   0.62908797    31.404803 
 6588000    1.0045977    1.0232866    29.860231    56970.057   0.62910241    31.486813 
 6590000   0.99549638    1.0883078    29.855535    56970.729   0.62909499    31.585492 
 6592000   0.99941299   0.98005372    29.850321    56969.832   0.62910489    31.408175 
 6594000   0.99184027   0.94478156    29.853684    56960.437   0.62920865    31.355223 
 6596000   0.99857089    1.0601376    29.849299    56950.943   0.62931355    31.533893 
 6598000   0.99429814    1.0316461    29.847321     56949.37   0.62933093    31.486595 
 6600000   0.99726219    1.0206178    29.844134    56952.036   0.62930147     31.46596 
 6602000    1.0016125    1.0133061    29.853666    56956.776    0.6292491    31.464008 
 6604000   0.99590979    1.0246665     29.84805    56953.816   0.62928181    31.476361 
 6606000   0.99771902    1.0414212    29.844548     56949.65   0.62932784    31.499363 
 6608000   0.99969515    1.0381265    29.855049     56951.82   0.62930385    31.504691 
 6610000   0.99643719   0.99951218    29.854575    56946.454   0.62936316    31.442708 
 6612000    1.0012967    1.0372563    29.847363    56950.914   0.62931386    31.495597 
 6614000    0.9957616   0.88163325    29.846412    56950.473   0.62931874    31.247345 
 6616000   0.99380769   0.98880188     29.84851    56944.288   0.62938709    31.419565 
 6618000   0.99541157    1.0104375    29.845701    56929.999   0.62954506     31.45073 
 6620000    0.9980962   0.97848507    29.850793    56934.079   0.62949996    31.405177 
 6622000   0.99402405    1.0181688    29.852191    56927.465   0.62957309    31.469428 
 6624000   0.99290182   0.98170123     29.84088    56931.077   0.62953315    31.400292 
 6626000   0.99275195   0.98707665    29.846298    56917.189   0.62968675    31.413866 
 6628000   0.99394057    1.0995826    29.841736    56914.357   0.62971809    31.587887 
 6630000   0.99690406   0.99586778    29.848648    56906.535   0.62980464     31.42988 
 6632000   0.99591648    1.0102983      29.8434    56911.216   0.62975284    31.447677 
 6634000    1.0027344   0.94116004     29.84999    56907.085   0.62979855    31.344373 
 6636000   0.99428586    1.0192674    29.845686    56917.495   0.62968337    31.464384 
 6638000     1.000915   0.95732126    29.855654    56924.034   0.62961103     31.37615 
 6640000    1.0025453    1.0009498    29.859989    56933.186   0.62950983    31.450035 
 6642000    1.0032657    1.0455462    29.862952    56940.045     0.629434    31.524042 
 6644000   0.99779384   0.98423963    29.863084     56935.41   0.62948523    31.426646 
 6646000    1.0053487    1.0562537    29.857133    56945.212   0.62937688    31.535386 
 6648000    1.0016973   0.99418524    29.854279    56945.659   0.62937194    31.433926 
 6650000    1.0030971   0.97949638    29.854618    56946.208   0.62936588    31.410941 
 6652000   0.99838149   0.97952461    29.845333    56946.589   0.62936167    31.401711 
 6654000   0.99652737    0.9622372    29.843946     56938.68   0.62944908    31.372643 
 6656000   0.99757269    1.0168262    29.846752    56941.535   0.62941752    31.462255 
 6658000   0.99640967   0.97172485    29.843477    56938.076   0.62945577    31.387231 
 6660000   0.99706633   0.97596768    29.840215    56924.486   0.62960604     31.39034 
 6662000   0.99515858    1.0134721    29.842298    56928.224   0.62956469    31.452096 
 6664000   0.99607355    1.0111327    29.845833    56924.122   0.62961006      31.4518 
 6666000   0.99058243    1.0810922    29.848025    56921.592   0.62963805     31.56503 
 6668000   0.99615753   0.97525418    29.844109    56915.579   0.62970456    31.392858 
 6670000    1.0048301   0.99163373    29.855004    56922.196   0.62963136    31.429948 
 6672000   0.99669667    1.0378132    29.854302    56928.793    0.6295584     31.50278 
 6674000    1.0013055    1.0135378    29.850244    56934.389   0.62949653    31.460321 
 6676000    1.0021111    1.0428025    29.846803    56940.755   0.62942615    31.503554 
 6678000     1.004283    1.0446169    29.862012    56943.255   0.62939851    31.521719 
 6680000    1.0017366    1.0022991    29.857996    56955.576   0.62926236    31.450812 
 6682000   0.99799681    1.0059601     29.85455    56958.696   0.62922789    31.453272 
 6684000   0.99737427    1.0319681    29.855905    56959.043   0.62922406     31.49597 
 6686000   0.99790667   0.98330652    29.855886    56966.406   0.62914273    31.418817 
 6688000    1.0066687   0.94552123    29.858122    56961.601    0.6291958    31.360868 
 6690000    1.0027641    1.0286129    29.857915     56973.56   0.62906373    31.493064 
 6692000   0.99971245    1.0462255    29.862145    56979.057   0.62900304    31.525453 
 6694000    1.0008938   0.97860546    29.870326    56984.014   0.62894832    31.426265 
 6696000    1.0058965    1.0641208    29.854284    56991.779   0.62886263    31.546419 
 6698000     1.002769    1.0244574    29.860393    56982.346   0.62896674    31.489187 
 6700000    1.0016714    0.9332797    29.853483    56971.939   0.62908163    31.337041 
 6702000    1.0020709   0.99057069    29.853623    56958.031   0.62923523    31.427868 
 6704000    1.0002561   0.94401096    29.848094    56951.563    0.6293067    31.348174 
 6706000    1.0014431    1.0011695    29.851692    56964.028   0.62916899    31.442949 
 6708000   0.99438235    1.0016957    29.848413    56952.795   0.62929308    31.440193 
 6710000    1.0005412    1.0101576    29.845005    56949.888    0.6293252    31.450149 
 6712000    0.9960933    1.0127189    29.855042    56943.349   0.62939747    31.464071 
 6714000    1.0016355    1.0560063    29.847132    56938.309   0.62945319    31.524788 
 6716000    1.0010679    1.0155469    29.851331    56942.656   0.62940513    31.464833 
 6718000   0.99783554   0.95597988    29.848273     56938.12   0.62945528    31.367015 
 6720000   0.99965372   0.96218291    29.848208    56924.553    0.6296053     31.37644 
 6722000     0.998544    1.0489991    29.847862    56926.262   0.62958639    31.514034 
 6724000   0.99641635   0.95775354    29.845054    56932.687   0.62951534    31.366468 
 6726000   0.99612446   0.96316203    29.847079    56933.861   0.62950236    31.377116 
 6728000   0.99315713   0.99472525    29.846917    56927.738   0.62957006    31.426924 
 6730000   0.99650405    1.0211069    29.850683    56922.546    0.6296275    31.472447 
 6732000   0.99591524    1.0618441    29.839372    56911.478   0.62974995    31.525509 
 6734000    0.9996936   0.96391713    29.842758    56910.503   0.62976073    31.373367 
 6736000    0.9922512   0.99304534    29.840426    56903.737   0.62983561      31.4171 
 6738000   0.99841994   0.99025451    29.841542    56908.734    0.6297803    31.413923 
 6740000   0.99068543    1.0015765    29.840466    56905.863   0.62981208    31.430744 
 6742000   0.99430501    1.0524256    29.843276    56913.497   0.62972761    31.514516 
 6744000   0.99976556    1.0937527    29.850483     56918.08   0.62967689     31.58749 
 6746000    1.0014909   0.97743656    29.849003    56916.641   0.62969281    31.401247 
 6748000   0.99732482     1.042547    29.849646     56929.56   0.62954992    31.505665 
 6750000   0.99662622    1.0001333    29.848104    56925.514   0.62959466     31.43664 
 6752000   0.99884725    1.0172457    29.844992    56928.548   0.62956112    31.460793 
 6754000    1.0006407   0.97922007    29.852787    56933.344   0.62950808     31.40832 
 6756000   0.99901219   0.96628397    29.851788    56931.222   0.62953155    31.386714 
 6758000   0.99735794   0.99366112    29.851355    56942.296   0.62940912    31.430076 
 6760000   0.99966736     1.002806    29.852268    56946.205    0.6293659    31.445627 
 6762000   0.99388472    1.0141053    29.845287    56939.846    0.6294362    31.456419 
 6764000   0.99695261    0.9796919    29.842261    56935.233   0.62948719    31.398594 
 6766000   0.99555835   0.96386476    29.838182    56928.603    0.6295605    31.369194 
 6768000   0.99739931   0.96306584    29.831569    56915.508   0.62970535     31.36096 
 6770000   0.99229872   0.98140025    29.840777    56906.818   0.62980151    31.399046 
 6772000   0.98978626    1.0240358    29.838843    56912.799   0.62973532    31.464979 
 6774000   0.99037753   0.97147104    29.839926    56914.312   0.62971858    31.382633 
 6776000   0.99202671    1.0184143    29.842284    56903.551   0.62983767    31.459231 
 6778000   0.99283833    1.0291611    29.836068     56896.49   0.62991584    31.469876 
 6780000    0.9957188    1.0056924    29.837769    56875.864   0.63014427    31.433741 
 6782000   0.99491287    1.0501507    29.844975    56872.104   0.63018594    31.511389 
 6784000    1.0022358    1.0320324    29.844397    56882.614    0.6300695    31.482363 
 6786000   0.99400972    1.0217384    29.844477    56877.498   0.63012617    31.465959 
 6788000   0.99400338    1.0963214    29.846526    56885.729   0.63003499    31.586622 
 6790000   0.99543095    1.0347584    29.844216    56884.928   0.63004387    31.486575 
 6792000   0.99100983   0.96973674    29.836748    56887.629   0.63001395    31.375978 
 6794000    0.9995505   0.96318276    29.844445    56893.454   0.62994945    31.373429 
 6796000   0.99734073   0.98819809    29.850292    56895.728   0.62992427    31.419049 
 6798000   0.99212927   0.99927524    29.845465    56907.405   0.62979502    31.432133 
 6800000   0.99786434    1.0498852    29.846162    56913.111   0.62973187    31.513356 
 6802000   0.99729642   0.97780852    29.853156    56918.551   0.62967169    31.406042 
 6804000    1.0014202   0.97121788    29.857621    56926.789   0.62958057    31.400264 
 6806000    1.0011388   0.97470078    29.856607    56935.645   0.62948263    31.405023 
 6808000   0.99942591    1.0675459    29.853349    56933.984     0.629501     31.54921 
 6810000    1.0033458   0.96970638    29.850911     56938.56   0.62945041    31.391471 
 6812000   0.99834715    1.0057386    29.851922    56937.463   0.62946254    31.449696 
 6814000    1.0008671   0.97313704    29.851691    56931.798   0.62952517    31.397518 
 6816000   0.99672865   0.97341171    29.845926    56926.542    0.6295833    31.392046 
 6818000   0.99778548   0.98341727    29.836319    56927.164   0.62957641    31.398349 
 6820000   0.99472097   0.99040065    29.847267    56919.208   0.62966442     31.42017 
 6822000   0.99567551    1.0002777    29.845355    56915.275   0.62970793    31.433834 
 6824000    1.0008296    1.0153469    29.853242    56923.962   0.62961183    31.465897 
 6826000    1.0022152    1.0082018    29.860732    56940.231   0.62943194    31.462497 
 6828000    1.0029655     1.021369    29.851885    56952.427   0.62929715    31.474917 
 6830000   0.99833222   0.97482796    29.856354    56958.722    0.6292276    31.405599 
 6832000    1.0077303   0.97013496    29.851823    56964.908   0.62915927    31.393777 
 6834000    1.0052128   0.96771158    29.863803     56974.97   0.62904816    31.402177 
 6836000    1.0048494   0.97421332    29.865455    56981.276   0.62897854    31.414336 
 6838000    1.0014725   0.98851373    29.857364    56981.512   0.62897594    31.428988 
 6840000    1.0028398   0.92270299    29.852654     56988.17   0.62890245    31.319818 
 6842000    1.0001504    1.0107095    29.860957    56992.841   0.62885091    31.468189 
 6844000   0.99549883    1.0211879    29.860006    56988.938   0.62889397     31.48379 
 6846000    1.0054858    1.0448258    29.865891     56990.28   0.62887917    31.527301 
 6848000   0.99810484   0.98483631     29.85979    56987.911   0.62890531    31.425743 
 6850000    1.0021599     0.909591    29.860091     56987.27   0.62891239    31.306383 
 6852000    1.0056269    1.0021997    29.862086    56977.742   0.62901755    31.455364 
 6854000    1.0011938   0.98549954     29.85263    56967.133    0.6291347    31.419067 
 6856000   0.99694717     1.046879    29.854568    56972.092   0.62907994    31.518711 
 6858000   0.99748851   0.98500324    29.863838    56964.772   0.62916077     31.42942 
 6860000    1.0029219   0.91952729    29.848049    56958.508   0.62922997    31.309402 
 6862000    1.0010005    1.0056479    29.854045    56953.554    0.6292847    31.452126 
 6864000   0.99982011   0.98641063    29.853647    56963.034   0.62917997    31.421419 
 6866000    1.0019682    1.0088441    29.851842    56967.609   0.62912945    31.455397 
 6868000   0.99881682    1.0483729    29.855456    56957.002   0.62924661    31.521532 
 6870000    1.0028383    1.0240532    29.852951     56956.57   0.62925138    31.480367 
 6872000    1.0021887    1.0148872    29.856401    56960.494   0.62920803    31.469361 
 6874000    1.0045792    1.0193165    29.862697    56961.895   0.62919256    31.482736 
 6876000    1.0035225   0.98056674    29.861466    56987.197   0.62891319    31.420611 
 6878000   0.99776539    0.9874951    29.859461    56997.244   0.62880233    31.429899 
 6880000    1.0049411    1.0036545     29.86007    56990.502   0.62887673    31.456018 
 6882000    1.0006432   0.95540914    29.850023    56996.009   0.62881596    31.369401 
 6884000   0.99881469    1.0049669    29.860995    57002.255   0.62874705    31.459359 
 6886000    1.0006814   0.97032435    29.853805    56993.929    0.6288389    31.396846 
 6888000   0.99789058    1.0572232    29.859479    56979.992   0.62899272    31.540299 
 6890000   0.99280271    1.0150298    29.845916    56984.609   0.62894175    31.459785 
 6892000   0.99959605   0.99173653    29.845246    56961.384   0.62919819    31.421437 
 6894000    1.0007032     1.001778     29.85422     56951.69   0.62930529    31.446099 
 6896000    1.0032001    1.0184389     29.84713    56951.007   0.62931284    31.465465 
 6898000   0.99890542   0.97465474    29.851284    56953.728   0.62928277    31.400118 
 6900000    1.0028365   0.97591171    29.842254    56947.288   0.62935393     31.39291 
 6902000   0.99725379   0.99014208    29.854093    56949.748   0.62932675    31.427428 
 6904000    1.0004844    1.0162079    29.858419    56958.939   0.62922521    31.473433 
 6906000    1.0045204    1.0601644    29.861566     56959.83   0.62921537    31.546465 
 6908000    1.0036163   0.97564504    29.858839     56962.42   0.62918676    31.409484 
 6910000    1.0064389   0.97841757    29.862393    56970.538    0.6290971    31.417665 
 6912000    1.0033141    1.0611341    29.860022    56968.376   0.62912097    31.546716 
 6914000    1.0011263   0.99425462    29.854143    56965.374   0.62915413    31.434446 
 6916000     1.002865    1.0069337     29.85934    56969.139   0.62911254    31.459902 
 6918000    1.0017946   0.99146545    29.860645     56967.76   0.62912777    31.436582 
 6920000    1.0025286    1.0129229    29.860949    56971.605   0.62908531      31.4711 
 6922000    1.0081722    1.0109352    29.865946    56971.516    0.6290863    31.472935 
 6924000    1.0058957   0.95193032    29.862017    56978.597   0.62900812      31.3754 
 6926000    1.0025101   0.95494581    29.868246    56984.106   0.62894731     31.38657 
 6928000    1.0060681   0.96454966     29.85834    56985.665    0.6289301    31.391976 
 6930000   0.99957486   0.98973788     29.85642    56982.999   0.62895953    31.430031 
 6932000   0.99618843   0.95183119     29.85867    56966.976   0.62913643    31.371587 
 6934000    1.0013376    1.0104447    29.859643    56965.219   0.62915584    31.465676 
 6936000   0.99982318     1.033608    29.849862    56969.229   0.62911155    31.492826 
 6938000    1.0018977   0.95864347    29.853836    56975.935   0.62903751    31.377821 
 6940000   0.99854735    1.0108079    29.854601    56970.681   0.62909551    31.461364 
 6942000    1.0013758    1.0603138    29.863079    56975.518   0.62904211     31.54868 
 6944000    1.0039919    1.0456809     29.85614    56971.461    0.6290869     31.51836 
 6946000   0.99580452    1.0235406    29.853956    56971.786   0.62908331    31.480991 
 6948000     0.996947    1.0246305    29.848755    56967.797   0.62912737    31.477409 
 6950000   0.99208553   0.93002909    29.842445    56944.268   0.62938731    31.320119 
 6952000   0.99599133   0.94358999    29.845116    56929.738   0.62954795    31.343954 
 6954000   0.99417338   0.95330114    29.838226     56926.59   0.62958276    31.352405 
 6956000   0.99291985    1.0460826    29.846936    56918.214   0.62967541    31.508241 
 6958000    1.0012838     1.014123    29.851504    56920.592   0.62964911     31.46212 
 6960000    1.0024905    1.0094946    29.857218    56918.135   0.62967628    31.460414 
 6962000   0.99675712   0.93089335    29.846472    56923.901   0.62961251    31.324989 
 6964000   0.99582739    1.0283403    29.850086    56908.526   0.62978261    31.482936 
 6966000   0.99320871   0.99872251    29.842756    56901.282   0.62986278    31.428375 
 6968000   0.99232776   0.97493597    29.842304    56894.364   0.62993938    31.389971 
 6970000   0.99684265    0.9548447    29.843927    56893.334   0.62995077    31.359672 
 6972000   0.99801202   0.96082889    29.850913    56888.551   0.63000374    31.376029 
 6974000   0.99360295   0.96950052    29.846357    56891.259   0.62997375    31.385311 
 6976000   0.99186214   0.98844612    29.850027    56884.482   0.63004881    31.418868 
 6978000   0.99701414   0.92134347    29.843911    56883.293   0.63006198    31.306217 
 6980000    1.0015478    1.0047351    29.857522    56886.819   0.63002292    31.452282 
 6982000   0.99695589   0.99548211    29.852694    56875.421   0.63014918     31.43245 
 6984000   0.99829052   0.98454086    29.854075     56881.05   0.63008682    31.416623 
 6986000    1.0025842     1.009199    29.857028    56895.172   0.62993042    31.459108 
 6988000   0.99678431    1.0222138    29.859518    56908.691   0.62978078    31.482644 
 6990000   0.99777031   0.99332375    29.858331    56911.865   0.62974566    31.435672 
 6992000   0.99634933    1.0645371    29.853156    56917.207   0.62968656    31.543739 
 6994000   0.99479549    1.0233197    29.839292    56906.329   0.62980692    31.464107 
 6996000   0.99372733   0.97284934    29.841373    56897.751   0.62990188    31.385819 
 6998000   0.99535282   0.94238315    29.842273    56894.355   0.62993947    31.338263 
 7000000     0.995647    1.0328733     29.84367    56895.974   0.62992155    31.483356 
 7002000   0.99652759    1.0326348    29.839021    56902.026   0.62985455    31.478503 
 7004000   0.99165872    1.0255223    29.836002    56888.947   0.62999935    31.463817 
 7006000    0.9929773     1.017717    29.840368    56870.212    0.6302069    31.455261 
 7008000   0.99821125    0.9971475    29.848663    56873.388   0.63017171    31.431006 
 7010000   0.99577872   0.96675773     29.84398    56878.968   0.63010989    31.378248 
 7012000   0.99258416   0.99931251    29.837169    56872.959   0.63017646    31.422936 
 7014000   0.99039405    0.9955471    29.829293    56867.951   0.63023196    31.408945 
 7016000   0.99461317    1.0291741    29.838629    56858.654   0.63033501    31.471371 
 7018000   0.99200901    0.9843496    29.833542     56862.85   0.63028849    31.395286 
 7020000   0.99417429    1.0120905    29.836121    56864.903   0.63026574    31.441937 
 7022000   0.99587062    1.0766488    29.839975    56869.228   0.63021781     31.54835 
 7024000   0.99733725   0.96817727     29.84832     56877.67   0.63012427    31.384807 
 7026000   0.99863814   0.92143888    29.849832    56868.981   0.63022055    31.311921 
 7028000   0.99727307   0.99062858    29.847128    56870.788   0.63020052    31.419054 
 7030000   0.99292253    1.0271131    29.841237    56874.115   0.63016365    31.471151 
 7032000   0.99818814   0.99799672    29.845698    56875.806   0.63014492    31.429456 
 7034000   0.99750797    1.0152503    29.841083    56874.482   0.63015959    31.452183 
 7036000   0.99254135   0.89217636     29.84263    56872.947    0.6301766    31.258386 
 7038000   0.99979913    1.0407716     29.84657    56875.818   0.63014479    31.498208 
 7040000    0.9998508    1.0108678    29.852996    56875.592   0.63014729    31.457173 
 7042000   0.99733806    1.0692162    29.849933    56879.201    0.6301073    31.546813 
 7044000    1.0019424    1.0629433    29.856181     56883.02     0.630065    31.543219 
 7046000    1.0015098   0.97357027    29.851382    56901.458   0.62986084    31.397073 
 7048000   0.99899512   0.99068132    29.859421    56911.607   0.62974851    31.432559 
 7050000   0.99453259    1.1022906     29.85433    56912.585    0.6297377    31.604726 
 7052000   0.99466884   0.98398382     29.85644    56915.633   0.62970397    31.419054 
 7054000   0.99960112    1.0385545    29.857924    56908.225   0.62978594    31.506983 
 7056000   0.99662959    1.0041861    29.852224    56914.466   0.62971689    31.446887 
 7058000    1.0004518   0.96585022    29.852082     56912.27   0.62974117    31.385808 
 7060000    0.9977984    1.0469841    29.849575    56910.841   0.62975699    31.512096 
 7062000   0.99402222    1.0102361    29.849326    56909.035   0.62977698    31.453443 
 7064000   0.99954796   0.98379422    29.858944    56906.084   0.62980963    31.420994 
 7066000   0.99930691    0.9894755    29.854868    56909.542   0.62977136    31.426034 
 7068000    1.0002404    1.0420805    29.850943    56912.124    0.6297428    31.505714 
 7070000    1.0015036     1.043712    29.852584     56908.21    0.6297861    31.509832 
 7072000   0.99769419   0.99044544    29.855617    56913.298   0.62972981    31.428427 
 7074000   0.99969654    1.0026032    29.854448     56918.37   0.62967369    31.446706 
 7076000    1.0023805    1.0271701    29.856324    56923.022   0.62962223    31.487731 
 7078000    1.0007674     1.034165    29.865616    56928.818   0.62955812      31.5083 
 7080000    1.0028605   0.96364403    29.864975    56938.074   0.62945578    31.395891 
 7082000    1.0004289    1.0615117     29.85872    56940.475   0.62942924    31.545187 
 7084000    1.0034062    1.0611767    29.862684     56936.44   0.62947385    31.548499 
 7086000    1.0014356    1.0387817    29.857789    56940.683   0.62942694     31.50815 
 7088000     1.001546    1.0589391    29.860026     56939.14     0.629444    31.542367 
 7090000    1.0021354   0.92719367    29.863989    56951.634   0.62930591    31.337348 
 7092000    1.0020227    1.0284601    29.867609    56957.926    0.6292364    31.502066 
 7094000    1.0005177    1.0337687    29.862862    56957.768   0.62923814    31.505752 
 7096000    1.0031034   0.94283239    29.863767    56969.195   0.62911193    31.362439 
 7098000    1.0005156     1.052156    29.857808    56973.406   0.62906543    31.530378 
 7100000    1.0062205   0.94417236    29.864971    56980.516   0.62898694    31.366071 
 7102000   0.99717007   0.93989944    29.853244    56970.641   0.62909596    31.347292 
 7104000   0.99815961    1.0508557    29.853652    56968.826     0.629116    31.524021 
 7106000    1.0012523    1.0245374    29.851343    56959.033   0.62922417    31.479598 
 7108000    1.0010676   0.98945845    29.849817    56956.308   0.62925427    31.422248 
 7110000    1.0007965   0.95250617    29.849493    56946.027   0.62936787    31.362926 
 7112000    1.0009438   0.99444331    29.860082    56941.496   0.62941796    31.440023 
 7114000   0.99631087   0.95774218      29.8494    56935.192   0.62948765    31.370863 
 7116000   0.99606438    1.0426424    29.852386    56937.396   0.62946328    31.508785 
 7118000    1.0014635   0.96978226    29.850418    56940.695   0.62942681    31.391157 
 7120000    1.0005569    1.0332135    29.848799    56931.636   0.62952697    31.490053 
 7122000   0.99339844   0.94855899    29.844902    56929.228    0.6295536    31.351619 
 7124000   0.99203954    1.0237083    29.847935    56923.252   0.62961969     31.47385 
 7126000   0.99762352   0.97168545    29.849473    56911.619   0.62974838    31.392447 
 7128000   0.99712414   0.97635759    29.856888    56904.453   0.62982769    31.407086 
 7130000   0.99775376     1.023552    29.862185     56904.58   0.62982629    31.487319 
 7132000   0.99934829   0.92924664    29.854807    56922.627    0.6296266    31.330676 
 7134000   0.99826402    1.0805894    29.848769    56927.904   0.62956824    31.565167 
 7136000   0.99757813   0.96318363    29.844853    56924.294   0.62960816    31.374667 
 7138000   0.99905295    1.0096711    29.847734    56922.405   0.62962906    31.451331 
 7140000   0.99585515   0.93676493    29.853887    56919.847   0.62965735    31.341625 
 7142000   0.99801472    1.0105734    29.849666    56923.214   0.62962011    31.454718 
 7144000   0.99882635    1.0072328    29.844465     56918.85   0.62966838    31.444089 
 7146000   0.99585796   0.98572248    29.848658     56924.34   0.62960765    31.414272 
 7148000   0.99342455   0.99666003    29.848315    56925.927    0.6295901    31.431345 
 7150000   0.99693638   0.99205918    29.846645    56926.896   0.62957939    31.422394 
 7152000   0.99343875    1.0284421    29.847028    56935.127   0.62948837    31.480803 
 7154000    1.0012014    1.0442533    29.850389    56936.278   0.62947563    31.509315 
 7156000   0.99354898   0.91482589    29.847048    56942.268   0.62940942    31.300515 
 7158000   0.99697188    0.9975416    29.839322    56934.614   0.62949404    31.423994 
 7160000    0.9912503   0.94225507    29.835339    56931.082   0.62953309    31.332091 
 7162000   0.98844372   0.96545367    29.829241    56921.868   0.62963499    31.362595 
 7164000   0.98716949    1.0339193    29.837499    56911.324   0.62975165    31.479288 
 7166000    0.9869214    1.0126211    29.831983    56901.639   0.62985884    31.439678 
 7168000   0.99186601   0.96662749    29.832009    56889.981    0.6299879    31.366367 
 7170000   0.98960726    1.0385527    29.827869    56883.783   0.63005655    31.476217 
 7172000   0.99027886   0.96666667    29.833907    56878.188   0.63011852     31.36801 
 7174000   0.99630439   0.98995864    29.837656    56872.415   0.63018249    31.408563 
 7176000   0.99884905    1.0358494    29.836869    56875.187   0.63015177    31.480679 
 7178000   0.99332965    1.0112486    29.845361    56875.943    0.6301434    31.450152 
 7180000   0.99332461   0.98035319    29.841982    56884.906   0.63004411    31.397989 
 7182000   0.99449474   0.95013624    29.842692     56890.56   0.62998149    31.350889 
 7184000   0.99686959    1.0202439    29.843237    56893.681   0.62994693    31.462808 
 7186000   0.99434293     1.002277    29.846582    56900.396    0.6298726     31.43782 
 7188000   0.99930239   0.88298343    29.855054    56907.523   0.62979371    31.257074 
 7190000   0.99590125    1.0262028     29.84347    56903.151   0.62984209    31.472772 
 7192000    0.9947133   0.99255855    29.845044    56908.442   0.62978354    31.421075 
 7194000   0.99817102   0.91497975    29.858407    56910.688   0.62975869    31.311313 
 7196000    1.0016625    1.0365378    29.851276    56920.017   0.62965547    31.497474 
 7198000     1.002438   0.96818097    29.850355    56921.022   0.62964435    31.388018 
 7200000   0.99886423    1.0772779    29.853462    56936.245   0.62947601    31.564851 
 7202000    1.0014432   0.99855094    29.845421    56930.088   0.62954409    31.431571 
 7204000    1.0004172   0.88326186    29.856568    56914.892   0.62971217    31.259212 
 7206000    1.0002798   0.90908153     29.85234    56922.028   0.62963323    31.296167 
 7208000   0.99973174    1.0123889    29.851757     56917.97   0.62967811    31.459545 
 7210000   0.99529062    1.0583551      29.8412     56923.76   0.62961406    31.522158 
 7212000   0.99406138    1.0083775    29.840786    56915.525   0.62970517    31.442135 
 7214000   0.99484459    0.9836829    29.846729     56923.32   0.62961894    31.409075 
 7216000   0.99876722    1.0445279    29.841447    56924.364   0.62960739    31.500462 
 7218000    1.0007101   0.97716525    29.848748    56929.211   0.62955378    31.400903 
 7220000   0.99993808   0.99000242    29.852048    56933.005   0.62951183    31.424699 
 7222000   0.99230843   0.96818993     29.83938     56932.55   0.62951686    31.377369 
 7224000   0.99597356    1.0787767    29.833764     56932.69   0.62951531    31.547426 
 7226000   0.99279811   0.92805974    29.839707    56936.603   0.62947204    31.314053 
 7228000   0.99342156   0.99820531    29.836517    56920.236   0.62965304    31.421843 
 7230000    1.0021101    1.0377038    29.850779    56908.768   0.62977993    31.498503 
 7232000   0.99216165    1.0371506    29.843436    56907.184   0.62979746    31.490236 
 7234000   0.99447627    1.0136231    29.846493    56907.765   0.62979103    31.455953 
 7236000   0.99623245    1.0238798    29.851042    56903.035   0.62984338    31.476652 
 7238000   0.99382045    1.0959163    29.844152    56903.942   0.62983334    31.584162 
 7240000   0.99143757    1.0173005    29.844277    56903.378   0.62983959    31.459451 
 7242000   0.99610219    1.0302615    29.854805     56887.26   0.63001804    31.490093 
 7244000   0.99868766   0.99548996    29.844899    56890.163   0.62998589    31.425077 
 7246000   0.99808202   0.98322402     29.84891    56894.959   0.62993279    31.409749 
 7248000   0.99877576   0.98296293    29.851025    56895.938   0.62992194    31.411477 
 7250000   0.99484596    1.0098143    29.841473     56905.39   0.62981732    31.444818 
 7252000   0.99634086   0.91259114    29.848062    56900.283   0.62987384    31.296909 
 7254000    0.9978578   0.97504733    29.847429    56896.819    0.6299122    31.395338 
 7256000   0.99378235    1.0179432    29.839959    56889.904   0.62998876     31.45577 
 7258000   0.99463119   0.96040762    29.843127    56887.878    0.6300112    31.367557 
 7260000   0.99852487   0.99278505    29.845066    56883.898   0.63005527    31.420777 
 7262000    0.9963391   0.98732685     29.84471    56881.348   0.63008353    31.411687 
 7264000    0.9911398   0.95431733    29.839918     56875.14   0.63015229    31.354341 
 7266000   0.99323685    1.0776214    29.837599      56856.7   0.63035667    31.547142 
 7268000   0.99721512    1.0061605    29.844098     56844.71   0.63048963    31.439938 
 7270000   0.99408052   0.99675822    29.844379    56846.216   0.63047292    31.425348 
 7272000   0.98748534   0.99510572    29.834503    56840.922   0.63053164    31.412704 
 7274000   0.98860524    1.0024476    29.834493    56834.364    0.6306044    31.424154 
 7276000    0.9976362    1.0117239    29.842532    56831.778    0.6306331     31.44683 
 7278000   0.99225784    1.0216496    29.837573    56837.743   0.63056691    31.457781 
 7280000   0.98964493     1.000863    29.836581    56841.716   0.63052283    31.423935 
 7282000   0.99496567   0.99115043    29.837477    56849.977   0.63043121    31.409656 
 7284000   0.99759901   0.99919765    29.837847    56845.678   0.63047889     31.42267 
 7286000   0.99579841   0.99776644      29.8402    56846.719   0.63046734    31.422782 
 7288000   0.99820225   0.97846112    29.848571    56854.904   0.63037659    31.400756 
 7290000   0.99481379   0.99814962    29.847951    56857.071   0.63035255     31.43143 
 7292000   0.99396655    1.0016951    29.839077    56851.918   0.63040969    31.428036 
 7294000   0.98980786   0.96826616    29.836982    56842.718   0.63051173    31.372665 
 7296000   0.99518945     1.026521    29.843837    56841.532   0.63052488    31.471879 
 7298000   0.99565015   0.96503373    29.850639    56850.398   0.63042655    31.381403 
 7300000   0.99115463     0.996054    29.842617    56860.867   0.63031047    31.422877 
 7302000    1.0055461   0.94222315    29.849812    56871.278   0.63019509    31.344941 
 7304000    1.0038803   0.90889791    29.859583    56881.586   0.63008088    31.302093 
 7306000    1.0071348   0.99954633     29.86443    56897.042   0.62990972    31.451239 
 7308000     1.004523    1.0423374    29.859358    56908.713   0.62978054    31.514438 
 7310000    1.0002493    1.0435104    29.856688    56920.867   0.62964607    31.513985 
 7312000    1.0027401    1.0181401    29.854728    56933.429   0.62950714    31.472089 
 7314000     1.000025   0.97387644    29.857031    56939.931   0.62943525    31.404253 
 7316000   0.99855105    1.0513948    29.855924    56943.333   0.62939765    31.526402 
 7318000   0.99812167    1.0598232     29.85686    56956.885    0.6292479     31.54113 
 7320000   0.99941251   0.96837456     29.84999     56957.78   0.62923801    31.388954 
 7322000   0.99996418    1.0597663    29.852921    56958.754   0.62922725    31.537156 
 7324000   0.99280664   0.99381454    29.839992    56957.313   0.62924317    31.419373 
 7326000   0.99337367   0.95306439    29.844893    56940.414   0.62942992    31.359064 
 7328000   0.99680212    1.0259316    29.847145    56929.063   0.62955542    31.476758 
 7330000     0.998894    1.0120973    29.853659    56927.164   0.62957641    31.461243 
 7332000   0.99760221   0.95387674     29.85691    56933.352   0.62950799    31.372183 
 7334000   0.99829961   0.96355359    29.850332    56930.639   0.62953799    31.380904 
 7336000   0.99882613   0.99487311    29.853093    56938.169   0.62945473    31.433625 
 7338000   0.99499481   0.96582821    29.852982    56937.427   0.62946293    31.387351 
 7340000   0.99875734   0.98059278    29.848896    56925.748   0.62959207    31.406401 
 7342000   0.99559193    1.0067679    29.848701    56919.507   0.62966111    31.447605 
 7344000    1.0008054   0.95992627     29.84986    56915.515   0.62970527    31.374266 
 7346000    1.0006227   0.96019112    29.853386    56913.944   0.62972265     31.37817 
 7348000   0.99850075   0.99309658    29.847725     56917.25   0.62968608    31.424854 
 7350000   0.99732862    1.0287752    29.838783    56909.952   0.62976683    31.472364 
 7352000    1.0007394   0.94670991    29.847856    56912.668   0.62973677    31.351198 
 7354000    1.0003333     1.017635    29.841305    56900.016    0.6298768    31.456914 
 7356000    1.0000551    0.8933494    29.850121    56906.419   0.62980593    31.268573 
 7358000   0.99604396    1.0098427    29.843029    56902.777   0.62984624    31.446345 
 7360000   0.99884215   0.98856984    29.843381    56902.927   0.62984458    31.412927 
 7362000   0.99523706    0.9833468    29.845771     56898.66   0.62989181    31.406907 
 7364000   0.99903258    1.1101433    29.849613     56910.74    0.6297581    31.612422 
 7366000   0.99783993    1.0177277    29.846165    56902.726    0.6298468    31.461999 
 7368000    1.0020357   0.97660272    29.851042    56902.816   0.62984581    31.401585 
 7370000   0.99496363   0.96195334    29.844325    56900.846   0.62986761    31.371556 
 7372000   0.99621793   0.98938612    29.848522    56898.769   0.62989061    31.419249 
 7374000   0.99757108   0.98755667    29.847032    56904.227   0.62983018    31.415005 
 7376000   0.99756181    1.0136352    29.852541    56902.068   0.62985409    31.461859 
 7378000   0.99464194   0.98279424    29.845769    56901.783   0.62985725    31.406113 
 7380000   0.99708231    1.0536483    29.847847    56909.817   0.62976833     31.52092 
 7382000    1.0052113   0.94756868      29.8585    56911.586   0.62974874    31.363177 
 7384000    1.0037561    1.0331887    29.861752    56925.363   0.62959633    31.502785 
 7386000   0.99623308   0.97914544    29.855948    56936.646   0.62947157    31.411452 
 7388000   0.99896137    1.0572362    29.847678    56926.978   0.62957848    31.526954 
 7390000    1.0005528    1.0317071    29.857635    56924.061   0.62961074    31.496278 
 7392000   0.99894241    1.0301807    29.850383    56925.213   0.62959799    31.486635 
 7394000    0.9999794    1.0498822     29.84787    56931.113   0.62953274    31.515587 
 7396000   0.99694251    1.0405314    29.839871    56922.085   0.62963259    31.492472 
 7398000   0.99756929   0.99933432    29.848094    56919.474   0.62966148    31.435192 
 7400000   0.99834132    1.0310245    29.846315    56914.415   0.62971745    31.483596 
 7402000   0.99277155    1.0538571    29.839276     56911.04   0.62975479    31.512717 
 7404000   0.99414464   0.89979902    29.849831    56908.487   0.62978305    31.278575 
 7406000    0.9948442    1.0493081    29.838978    56901.892   0.62985604    31.504927 
 7408000   0.99758118    1.0076359    29.849303    56907.987   0.62978858    31.449262 
 7410000     1.001309   0.97058241    29.851846    56905.257   0.62981879    31.392897 
 7412000   0.99963814   0.95056049    29.846444    56907.275   0.62979645    31.355757 
 7414000   0.99746401    1.0490715    29.851063    56914.597   0.62971543    31.517008 
 7416000    1.0027144   0.98584637    29.851663     56926.71   0.62958144    31.417539 
 7418000    1.0021633    1.0365491    29.855224    56936.367   0.62947466    31.501913 
 7420000    1.0001742    1.0249439    29.854947    56946.987   0.62935727    31.483504 
 7422000    1.0059155   0.96399012    29.856087    56949.923   0.62932482    31.387872 
 7424000     1.001523   0.98854722    29.862497    56959.448   0.62921958    31.433566 
 7426000    1.0036948    1.0238204    29.855763    56969.853   0.62910466    31.483188 
 7428000     1.007263    1.0334625    29.850471    56966.771    0.6291387    31.493133 
 7430000    1.0057024   0.92202375    29.862999     56961.09   0.62920145    31.328386 
 7432000    1.0017102   0.94932082    29.861909    56951.075   0.62931209    31.370414 
 7434000    1.0054627   0.98795999    29.855386    56958.279   0.62923249    31.425489 
 7436000   0.99275044   0.92006394    29.850419    56961.091   0.62920144    31.312691 
 7438000   0.99699952   0.97279221    29.848219    56953.134   0.62928934    31.394078 
 7440000   0.99636139    1.0497199    29.849915    56944.301   0.62938695     31.51776 
 7442000   0.99867658   0.95052071    29.842326    56923.894   0.62961258    31.352017 
 7444000   0.98775535   0.96615179     29.83002    56910.193   0.62976416    31.364169 
 7446000   0.99285745   0.96744257    29.841122    56894.312   0.62993995    31.376892 
 7448000    0.9941528    1.0323821    29.830172    56881.414   0.63008279    31.468659 
 7450000    0.9945273   0.95973632    29.841335    56861.088   0.63030803    31.363981 
 7452000    0.9922692    1.0024996    29.840548    56870.223   0.63020677    31.431295 
 7454000   0.99135798    1.0035964    29.836372    56865.737   0.63025649    31.428734 
 7456000   0.99240929   0.96443991    29.834972    56865.721   0.63025667    31.365205 
 7458000   0.99360293   0.97888402      29.8382    56875.751   0.63014552    31.391626 
 7460000   0.99476009    1.0094105     29.83975    56877.092   0.63013067    31.441656 
 7462000    0.9996603    1.0194415    29.856481    56885.328   0.63003944    31.474541 
 7464000    1.0046282    1.0679576    29.864078    56890.414   0.62998311    31.559294 
 7466000    1.0002266   0.92319465    29.856955    56893.021   0.62995424     31.32245 
 7468000    1.0016393    1.0337865    29.856005    56905.637   0.62981458    31.497419 
 7470000   0.99961305   0.99748506    29.859079    56903.907   0.62983373    31.442807 
 7472000   0.99746205   0.97593529     29.85548    56911.766   0.62974675    31.405207 
 7474000    1.0020293   0.98921907    29.867007    56920.143   0.62965407    31.438058 
 7476000    1.0065809   0.99152965    29.860833     56931.83   0.62952482    31.435878 
 7478000   0.99854139    1.0411762     29.85463    56934.989   0.62948989     31.50863 
 7480000     1.003796    1.0073053    29.859613    56935.817   0.62948073    31.459829 
 7482000   0.99588075    1.0022923    29.850473    56950.296    0.6293207    31.443131 
 7484000   0.99920517    1.0230405    29.843427     56946.49   0.62936276    31.468945 
 7486000   0.98951866     1.010944    29.845829    56931.408   0.62952949    31.451701 
 7488000   0.99839509   0.92487238    29.850551    56935.975   0.62947899    31.319817 
 7490000   0.99803106    1.0438241    29.849554    56928.127   0.62956576     31.50756 
 7492000   0.99635941   0.99806856    29.847289    56926.072   0.62958849     31.43256 
 7494000   0.99722495   0.94045792    29.851512    56926.587    0.6295828    31.345291 
 7496000   0.99953377    1.0211286    29.852705     56920.53    0.6296498    31.474446 
 7498000   0.99605605   0.98310986    29.849322    56916.002   0.62969989    31.410558 
 7500000    1.0014723   0.95884726    29.851512     56908.24   0.62978578     31.37401 
 7502000   0.99521339   0.99911677     29.84929    56903.904   0.62983376    31.435608 
 7504000   0.99458654   0.99509527    29.847714    56898.045   0.62989862    31.427484 
 7506000    1.0031708   0.97524142     29.85212    56897.709   0.62990234    31.400362 
 7508000   0.99914437    1.0605668    29.859241    56908.693   0.62978077    31.543266 
 7510000    1.0060796    1.0572398    29.868343    56915.588   0.62970447    31.547289 
 7512000    1.0050301    1.0259175    29.863524    56925.887   0.62959054    31.493023 
 7514000    1.0014027   0.93419909    29.848235     56926.01   0.62958918    31.332059 
 7516000    1.0026041    1.0544385    29.860195    56928.183   0.62956515    31.535063 
 7518000    1.0013707   0.98858825     29.85339    56934.163   0.62949902    31.423826 
 7520000   0.99939685    1.0618479     29.85264    56939.592     0.629439    31.539615 
 7522000   0.99354449   0.94696542    29.845411    56930.654   0.62953782    31.349635 
 7524000     1.002673   0.97304626    29.855742    56927.435   0.62957342    31.401307 
 7526000   0.99609186    1.0331922    29.853056    56917.696   0.62968115    31.493874 
 7528000    1.0013073   0.94726818     29.86332    56915.536   0.62970504    31.367625 
 7530000   0.99935095    1.0678463    29.858815    56930.897   0.62953513    31.555061 
 7532000    1.0035367   0.97548146    29.858794    56938.789   0.62944788    31.408536 
 7534000    1.0006224   0.99559238    29.860599    56944.841   0.62938098    31.442458 
 7536000    1.0057704   0.95302105    29.858331    56956.665   0.62925033    31.372865 
 7538000    1.0044893    1.0285908     29.86286    56974.459    0.6290538       31.498 
 7540000    1.0032845    1.0457187    29.856028    56970.623   0.62909616    31.518283 
 7542000   0.99922504   0.98344906    29.853236    56964.089   0.62916831     31.41633 
 7544000   0.99609437     1.028289    29.851448      56951.9   0.62930297     31.48546 
 7546000   0.99755076    1.0207698    29.847876    56948.881   0.62933633    31.469855 
 7548000   0.99537966    1.0512731    29.840084     56940.01   0.62943438    31.510271 
 7550000   0.99521142   0.97042844    29.836296    56923.982   0.62961161    31.377609 
 7552000   0.99167292    0.9960222    29.842058    56902.323   0.62985126    31.423419 
 7554000   0.99686943    1.0042038    29.845324    56886.081    0.6300311    31.439219 
 7556000   0.99842369   0.99631111    29.847581    56886.477   0.63002671    31.428961 
 7558000   0.99824471    1.0145295     29.84738    56887.063   0.63002022    31.457693 
 7560000   0.99459676   0.98220339     29.85224    56892.117   0.62996425    31.411381 
 7562000   0.99912632   0.94020054     29.84761    56893.288   0.62995129    31.340108 
 7564000   0.99764767    1.0197545    29.846802    56900.679   0.62986946    31.465795 
 7566000   0.99970633   0.98687452    29.847688    56905.764   0.62981318     31.41462 
 7568000   0.99515188    1.0022312    29.833668    56896.927     0.629911    31.424736 
 7570000   0.99697593    1.0149916    29.837607    56893.525   0.62994867    31.448836 
 7572000   0.99306279   0.96641032    29.838981    56889.669   0.62999136    31.372987 
 7574000   0.98850078   0.96160387    29.829799    56876.592   0.63013621    31.355824 
 7576000   0.98606761    1.0026665      29.8312    56862.087   0.63029695    31.421984 
 7578000   0.98835171    1.0315807    29.829745    56842.842   0.63051034    31.465849 
 7580000   0.98646189   0.98145304    29.827465    56830.031   0.63065248    31.383715 
 7582000   0.99048218    1.0150141    29.831865    56835.179   0.63059536    31.441477 
 7584000   0.99036907    1.0187834    29.829755    56835.121     0.630596    31.445343 
 7586000   0.99227629   0.98002995    29.838173    56837.535   0.63056921    31.392372 
 7588000   0.99766131    1.0903134    29.839506    56839.971   0.63054219    31.568674 
 7590000   0.99695026   0.99154406     29.83823    56839.652   0.63054573    31.410747 
 7592000   0.99428081   0.99870802     29.83881    56836.706   0.63057842    31.422607 
 7594000   0.99214719    1.0466351    29.846793    56829.128    0.6306625    31.506373 
 7596000    0.9964493    1.0300852    29.843941    56835.648   0.63059015    31.477467 
 7598000    1.0012472    1.0103567    29.847154    56846.328   0.63047168    31.449695 
 7600000    1.0010913    1.0067154     29.85662    56864.436   0.63027092    31.453894 
 7602000   0.99918338    1.0367374    29.851786     56876.99    0.6301318    31.497057 
 7604000    1.0057557   0.97487193    29.865536    56895.922   0.62992213    31.413143 
 7606000    1.0039693    1.0083852    29.853878    56906.835   0.62980132    31.454994 
 7608000   0.99856347    1.0203124    29.850266    56907.536   0.62979356    31.470341 
 7610000    1.0022485    1.0682794    29.862354    56919.391    0.6296624    31.558945 
 7612000    1.0000518    0.9704704    29.855132    56922.774   0.62962497    31.396478 
 7614000    1.0032332   0.99083968    29.851849    56928.501   0.62956164    31.425706 
 7616000   0.99806894    1.0551863    29.852122    56934.197   0.62949865    31.528355 
 7618000   0.99690793     0.963729     29.85417    56935.667    0.6294824    31.385156 
 7620000   0.99618614   0.96517982    29.846803     56933.97   0.62950116    31.380049 
 7622000    1.0020384    1.0451173    29.850519    56943.016   0.62940116    31.511014 
 7624000   0.99986389    1.0226135     29.84949    56943.897   0.62939142    31.474256 
 7626000    1.0000698    0.9872427    29.849647    56945.175   0.62937729     31.41825 
 7628000   0.99246598    1.0472981    29.849246    56948.111   0.62934484    31.513355 
 7630000   0.99666679   0.97238043    29.848343    56945.048   0.62937869    31.393328 
 7632000   0.99868482   0.94089624    29.855046    56945.728   0.62937118    31.350025 
 7634000   0.99859662   0.99591667    29.846021    56947.908   0.62934708    31.428481 
 7636000   0.99755556    1.0294408    29.851928    56953.152   0.62928914    31.487807 
 7638000   0.99239412   0.97503869    29.846925    56957.489   0.62924123    31.396471 
 7640000   0.99634518   0.97271569    29.850481    56957.069   0.62924586    31.396325 
 7642000    1.0031201   0.98428833    29.855035    56956.036   0.62925727    31.419242 
 7644000   0.99957212    1.0086933    29.847459    56960.086   0.62921253    31.450563 
 7646000    1.0002447   0.98272808    29.852497    56944.147   0.62938866    31.413898 
 7648000   0.99825583   0.97713481    29.850362    56949.999   0.62932398    31.403036 
 7650000   0.99947977   0.93489075    29.849849    56953.839   0.62928155    31.335497 
 7652000   0.99506588   0.99589829    29.852129    56940.968    0.6294238    31.434367 
 7654000    1.0006289    0.9559308    29.852365    56940.812   0.62942552    31.371101 
 7656000   0.99509794    1.0536998    29.854471     56934.14   0.62949928    31.528341 
 7658000   0.99783377     1.014771    29.847156    56921.573   0.62963826    31.458829 
 7660000     0.996156    1.0129358    29.851464    56912.768   0.62973567    31.459973 
 7662000   0.99517566     0.965147    29.849025    56905.473    0.6298164    31.381451 
 7664000    0.9995226    1.0327289    29.846843    56905.395   0.62981726    31.486571 
 7666000   0.99707133   0.99968617    29.837078    56902.823   0.62984573     31.42427 
 7668000    0.9935967    1.0021134    29.840541    56897.376   0.62990602    31.431435 
 7670000   0.99628351   0.97217918    29.834114    56892.002   0.62996552     31.37734 
 7672000   0.99780627    1.0292718    29.840804     56892.03   0.62996522    31.474659 
 7674000   0.99282083   0.98591573    29.842661    56891.249   0.62997386    31.407671 
 7676000   0.99660541   0.97133633    29.844167    56902.013    0.6298547    31.386327 
 7678000    0.9988078    1.0040036    29.847779    56901.157   0.62986417    31.441779 
 7680000   0.99376605   0.91684542    29.844869    56902.529   0.62984898    31.300528 
 7682000   0.99427295   0.97832819    29.847506    56897.448   0.62990523    31.400642 
 7684000   0.99150216    1.0122929    29.843264    56892.431   0.62996078    31.450178 
 7686000   0.99759486    1.0075796    29.850756    56887.669   0.63001351    31.450054 
 7688000    1.0011455   0.98420139    29.852788    56884.509   0.63004851    31.414892 
 7690000    1.0033229   0.99142239    29.853983    56888.131   0.63000839    31.427648 
 7692000    1.0033927    0.9829937    29.852249    56886.032   0.63003164    31.412478 
 7694000   0.99849514   0.99562796    29.854838    56891.724    0.6299686    31.435278 
 7696000   0.99763152   0.96559744    29.855472    56897.673   0.62990273    31.388403 
 7698000    1.0019136   0.96804083    29.855953    56912.945   0.62973371    31.393176 
 7700000   0.99681832   0.95588449    29.847038    56921.073   0.62964379    31.365174 
 7702000   0.99791563     0.952462    29.848684    56923.719   0.62961452    31.361454 
 7704000   0.99778884   0.99946094    29.844948    56913.898   0.62972317    31.432091 
 7706000   0.99488897   0.95974358    29.845456    56902.651   0.62984764    31.369227 
 7708000   0.99607322   0.96552047    29.849335    56885.971   0.63003231    31.381829 
 7710000   0.99398229    1.0228698    29.840046     56883.95    0.6300547    31.463508 
 7712000   0.99688287    1.0804431    29.845482    56880.356    0.6300945    31.560214 
 7714000     1.001793    1.0236499    29.853212    56879.992   0.63009854    31.477799 
 7716000    1.0016738   0.99210119    29.855389    56889.336   0.62999505    31.430165 
 7718000   0.99520198   0.92009923    29.856349    56882.133   0.63007482    31.316651 
 7720000   0.99908948    1.0544052    29.853651    56882.108   0.63007511     31.52711 
 7722000   0.99874228   0.98204688    29.851116    56875.843   0.63014451    31.409563 
 7724000   0.99970678   0.95575148    29.849091    56881.871   0.63007773    31.365969 
 7726000   0.99603504    1.0115859    29.848357    56889.397   0.62999437    31.454063 
 7728000    1.0006472    1.0086788    29.848691    56898.458   0.62989405    31.450037 
 7730000    1.0012372   0.95856998    29.859708    56907.241   0.62979683    31.381738 
 7732000   0.98921179    1.0143611    29.836938    56901.302   0.62986257    31.447387 
 7734000    0.9954839    1.0151379    29.846861    56903.415   0.62983917    31.458602 
 7736000   0.99434659     1.047644    29.844308    56909.026   0.62977707    31.507823 
 7738000   0.99371813    1.0116104    29.844646    56899.559   0.62988186    31.450678 
 7740000   0.99417169    1.0365343    29.844963    56908.147   0.62978681    31.490812 
 7742000   0.99953088   0.91698923     29.84779    56910.901   0.62975633    31.303891 
 7744000   0.99924064    1.0343445    29.853141    56898.446   0.62989418    31.495233 
 7746000   0.99630434    1.0306888    29.853798    56893.938   0.62994409    31.489958 
 7748000   0.99872738     1.005506     29.85185    56898.036   0.62989872    31.448148 
 7750000   0.99996101    0.9581009    29.856574    56904.366   0.62982865    31.377782 
 7752000    1.0009165   0.99098462    29.854895    56907.438   0.62979465      31.4284 
 7754000     1.001995    1.0356067    29.858062    56907.429   0.62979475    31.502418 
 7756000    1.0014373    1.0320772    29.856142    56914.966   0.62971135    31.495111 
 7758000    1.0026207    1.0083836    29.857305    56924.844   0.62960208    31.458925 
 7760000    1.0039958   0.93399082    29.853971    56923.541   0.62961649    31.337399 
 7762000    1.0024061   0.94276748    29.851212    56932.422   0.62951827    31.348814 
 7764000    1.0011632    1.0057079    29.851595    56930.498   0.62953955    31.449125 
 7766000     1.000604    1.0187109    29.850449    56933.498   0.62950637    31.468718 
 7768000    1.0065859   0.97754169    29.864468    56941.635   0.62941642    31.417561 
 7770000    1.0010963    1.0272183    29.858092    56951.616   0.62930612    31.490395 
 7772000   0.99983746    1.0447769     29.85968    56953.024   0.62929055    31.519926 
 7774000    1.0032873   0.95186428    29.859555    56958.961   0.62922496    31.372311 
 7776000   0.99964717     1.054575     29.85224    56946.507   0.62936257    31.527864 
 7778000   0.99229202    1.0443415    29.842011    56940.066   0.62943376    31.501188 
 7780000   0.99363034     1.062594    29.839826    56938.806    0.6294477    31.527963 
 7782000   0.99855663   0.97233217    29.843146    56938.438   0.62945176    31.387875 
 7784000   0.99219408    1.0166877     29.84046    56925.773    0.6295918    31.455296 
 7786000    0.9927753    1.0068445    29.840901     56919.79   0.62965798    31.439935 
 7788000   0.99047824    1.0230416     29.84216    56907.769   0.62979099    31.466574 
 7790000    1.0004792    1.0337309    29.847987    56918.386   0.62967351     31.48968 
 7792000   0.99416353   0.97640359    29.844656    56915.991   0.62970001    31.395241 
 7794000   0.99936481   0.94216162    29.853778    56914.547   0.62971599    31.349947 
 7796000   0.99516786   0.99393675    29.852452    56903.876   0.62983407    31.430545 
 7798000   0.99594116   0.96744734    29.845916     56900.44   0.62987211    31.381858 
 7800000    0.9917528    1.0506075    29.842892    56892.768   0.62995705    31.510637 
 7802000   0.99551384   0.97790412    29.842496    56891.304   0.62997325    31.394791 
 7804000   0.99249923    1.0641592    29.848503    56887.683   0.63001336    31.537609 
 7806000   0.99614991      1.00764    29.854398    56887.785   0.63001223    31.453795 
 7808000   0.99613405    1.0597236    29.858339      56885.2   0.63004085    31.540331 
 7810000   0.99652537   0.97943681    29.854291    56893.138   0.62995295    31.409069 
 7812000    1.0018931    1.0333516    29.851183    56892.667   0.62995816    31.491533 
 7814000    0.9987896    1.0447878    29.857453    56885.995   0.63003205    31.515762 
 7816000   0.99752619    1.0129074    29.851598    56883.923   0.63005499    31.459248 
 7818000    1.0015158    1.0246861     29.84363    56879.686   0.63010193    31.469853 
 7820000    1.0002131    1.0078216    29.848477    56887.414   0.63001633    31.448152 
 7822000   0.99736015    1.0140144    29.851528    56891.754   0.62996827    31.461156 
 7824000   0.99518211    1.0189756    29.855247    56889.307   0.62999537    31.472681 
 7826000   0.99225733    1.0078492    29.848178    56889.816   0.62998973    31.447965 
 7828000    0.9992102    1.0332254    29.843935    56892.589   0.62995903    31.484082 
 7830000   0.99499691   0.99802787     29.84284    56882.549   0.63007021    31.426834 
 7832000   0.99817696    0.9714212    29.842472    56890.503   0.62998213    31.384455 
 7834000   0.99505369     1.056139    29.852533    56891.288   0.62997343    31.529015 
 7836000    1.0019122   0.98866567    29.854751    56894.867    0.6299338    31.424226 
 7838000    1.0011129    0.9384044    29.847182    56903.613   0.62983698    31.337098 
 7840000    1.0004672    1.0166212    29.850427     56907.51   0.62979385     31.46464 
 7842000    1.0014368    1.0495788    29.852575    56901.193   0.62986378    31.518934 
 7844000   0.99696901    1.0122402     29.85219     56907.86   0.62978998    31.459456 
 7846000   0.99874663     1.003495    29.856699    56919.326   0.62966311      31.4504 
 7848000   0.99559911    1.0544243     29.85657    56924.078   0.62961055    31.531294 
 7850000    1.0051921     1.010924    29.858581    56933.405   0.62950741    31.464478 
 7852000   0.99639863   0.99161851    29.851824    56947.483   0.62935179    31.427442 
 7854000    1.0002813   0.96637697    29.851922    56943.344   0.62939753    31.387322 
 7856000   0.99951932    1.0332014    29.850769    56943.622   0.62939446    31.492349 
 7858000   0.99831567    1.0561009      29.8596    56945.903   0.62936924    31.537631 
 7860000    1.0017543    1.0688426    29.862246      56953.1   0.62928971    31.560737 
 7862000    1.0033274   0.95742641     29.85764    56949.884   0.62932525    31.378994 
 7864000   0.99985125    1.0400352    29.856883    56950.633   0.62931697    31.509524 
 7866000   0.99968903    1.0105978    29.857178    56955.261   0.62926584    31.463173 
 7868000   0.99944803    1.0226701     29.85995    56947.959   0.62934652    31.484922 
 7870000    1.0064419    1.0022065    29.860644    56965.159    0.6291565     31.45358 
 7872000    1.0035068    1.0408651    29.862996    56970.441   0.62909817    31.517531 
 7874000    1.0039786    1.0334584    29.863711    56990.346   0.62887845    31.507047 
 7876000    1.0076536   0.98193675     29.86477     56994.43   0.62883337    31.426291 
 7878000   0.99929855    1.0023466    29.858169    56997.096   0.62880396    31.452221 
 7880000    1.0024954    1.0709959    29.859416    57006.001   0.62870574    31.562909 
 7882000    0.9995104    1.0596326    29.854823    57005.939   0.62870642    31.540241 
 7884000    1.0006462   0.97528269    29.849022    56994.869   0.62882853    31.399974 
 7886000   0.99180731   0.99461404    29.849287    56969.286   0.62911092    31.430271 
 7888000   0.99169805   0.96463162    29.848253     56958.13   0.62923414    31.381278 
 7890000   0.99518215   0.91887197    29.842109    56940.817   0.62942546    31.301967 
 7892000   0.99002367     1.015996    29.837526     56929.73   0.62954804    31.451375 
 7894000   0.99478719    1.0176122    29.835221     56910.36   0.62976231    31.451088 
 7896000   0.99366631   0.99038848    29.839834     56896.72   0.62991329    31.412095 
 7898000   0.99226575   0.90393812    29.836776    56882.077   0.63007544    31.271427 
 7900000   0.99222842   0.96456391    29.835723    56880.995   0.63008743    31.366564 
 7902000   0.99384243    1.0276562    29.838664    56891.757   0.62996824    31.469946 
 7904000   0.99032417    1.0175255    29.839713    56877.277   0.63012862    31.454503 
 7906000    0.9989466    1.0104649    29.846164     56877.61   0.63012493    31.449759 
 7908000    1.0007969   0.99155881    29.855159    56894.282   0.62994028    31.429211 
 7910000   0.99891158    1.0291291    29.854481    56897.756   0.62990182    31.488274 
 7912000    1.0007468   0.94543534     29.85015    56907.163    0.6297977    31.351323 
 7914000   0.99980977    1.0326955    29.857926    56919.004   0.62966667    31.497992 
 7916000   0.99611507    1.0146892    29.849887    56932.396   0.62951856    31.461736 
 7918000   0.99776668    1.0115935    29.848492    56938.115   0.62945533    31.455585 
 7920000    1.0007354    1.0235561    29.848846    56939.675   0.62943809    31.474988 
 7922000     1.000267   0.96391688    29.853148    56937.436   0.62946284     31.38448 
 7924000   0.99803077    1.0468502    29.853201    56925.622   0.62959348    31.515941 
 7926000     1.001155    1.0159647    29.855412     56925.31   0.62959692    31.469087 
 7928000   0.99468987    1.0718669    29.850324    56927.263   0.62957532    31.552848 
 7930000    1.0021318    0.9853855     29.85576    56928.133   0.62956571    31.420942 
 7932000     1.005676   0.96773781    29.853383    56925.357    0.6295964     31.39046 
 7934000   0.99749353    1.0291859    29.854816    56928.528   0.62956133    31.489583 
 7936000    1.0006931    1.0018112    29.860139    56927.771   0.62956971    31.451402 
 7938000   0.99913388      1.00401    29.854865    56925.337   0.62959663    31.449553 
 7940000   0.99807575   0.99256836    29.854998    56927.927   0.62956799    31.431585 
 7942000   0.99950888   0.99981768    29.853983    56926.083   0.62958837    31.442033 
 7944000   0.99860082    1.0017819    29.853089    56925.892   0.62959048    31.444253 
 7946000    1.0017739    1.0075242    29.845902    56926.821   0.62958021    31.446213 
 7948000   0.99859431    1.0161687    29.849641    56919.445    0.6296618    31.463473 
 7950000   0.99712279    1.0431524    29.844862    56916.831   0.62969072    31.501473 
 7952000   0.99839529    1.0596468    29.846272    56915.258   0.62970812     31.52903 
 7954000    0.9946323     1.092753    29.846785    56906.302   0.62980722    31.581844 
 7956000   0.99904186    1.0200932    29.852549    56902.403   0.62985038     31.47213 
 7958000   0.99982644   0.96367534     29.85576    56910.096   0.62976524    31.385974 
 7960000   0.99979539    1.0349441    29.854705     56913.86   0.62972359    31.498194 
 7962000    1.0027486   0.99629864    29.855733    56912.848   0.62973478    31.437825 
 7964000    1.0052107   0.94604803    29.860327    56929.037   0.62955571    31.363051 
 7966000   0.99685149   0.92735336    29.859716     56944.38   0.62938608    31.333142 
 7968000    1.0045906    1.0383378    29.858129    56941.086   0.62942249    31.507797 
 7970000    1.0011733    1.0570523    29.859507    56952.036   0.62930147     31.53923 
 7972000    1.0039764   0.99303925    29.858016    56960.034    0.6292131     31.43624 
 7974000   0.99996145   0.99412883    29.858313    56961.192   0.62920031    31.438301 
 7976000    1.0019566   0.91478635    29.857471    56951.258   0.62931007    31.311105 
 7978000    1.0045321   0.98156834    29.856867    56948.894   0.62933619    31.416555 
 7980000   0.99848725   0.98938124    29.852504    56943.392     0.629397    31.424455 
 7982000   0.99372899   0.97102909    29.849418        56937   0.62946766    31.392038 
 7984000    1.0016623   0.98199908    29.854716    56931.499   0.62952848    31.414612 
 7986000    0.9976988   0.95980045    29.852469    56921.324   0.62964101     31.37683 
 7988000   0.99398502   0.95455723    29.840865    56922.995   0.62962252    31.356943 
 7990000   0.99812964   0.98602418    29.848715     56902.83   0.62984565    31.414217 
 7992000    1.0008441    1.0088646    29.856327    56905.795   0.62981284    31.458175 
 7994000   0.99912715    1.0506341    29.848308    56907.065   0.62979878    31.516514 
 7996000   0.99188135   0.99244087    29.846194    56908.254   0.62978562    31.422033 
 7998000   0.99514209    1.0701902    29.846138    56912.609   0.62973743     31.54556 
 8000000   0.99599228   0.99934538     29.84203    56919.937   0.62965636    31.429158 
 8002000    1.0000592   0.92736672    29.852945    56923.826   0.62961333     31.32586 
 8004000   0.99775166   0.98182579     29.85154     56925.84   0.62959106    31.411006 
 8006000   0.99732483    1.0000081    29.841903    56923.922   0.62961227    31.430195 
 8008000   0.99378184   0.93313924    29.853239    56919.974   0.62965595    31.335222 
 8010000    1.0001632   0.98826174    29.855367     56920.17   0.62965378    31.424899 
 8012000   0.99637607   0.99276207    29.852595    56921.485   0.62963923    31.429311 
 8014000   0.99789605   0.97035741    29.850455    56918.859   0.62966828    31.391517 
 8016000    1.0007634    1.0262994    29.862843    56913.625   0.62972618    31.492598 
 8018000    1.0001707    1.0523286    29.859512     56911.76   0.62974682    31.530546 
 8020000    1.0054077    1.0185275    29.861656    56918.066   0.62967705    31.479196 
 8022000    1.0025601   0.99806035    29.867816    56937.825   0.62945854    31.453402 
 8024000    1.0036615    1.0163965    29.865748     56945.71   0.62937138    31.480687 
 8026000    1.0065301    1.0807736    29.857498    56957.033   0.62924626    31.575067 
 8028000    1.0002548    1.0195404    29.859251    56958.502   0.62923003     31.47955 
 8030000   0.99919199     1.045659    29.848738    56954.966   0.62926909    31.510442 
 8032000   0.99773944    1.0036997    29.851503    56956.361   0.62925368    31.446567 
 8034000   0.99887104   0.94021258    29.850672    56948.367   0.62934201    31.344633 
 8036000    1.0063463    1.0087528    29.866005    56948.798   0.62933725    31.468886 
 8038000    1.0062663   0.91972996    29.858501    56948.406   0.62934158    31.319917 
 8040000    1.0061505   0.93473364    29.864393     56950.66   0.62931667    31.349708 
 8042000   0.99839363    1.0413254    29.853785    56956.521   0.62925192    31.508647 
 8044000    1.0016611    1.0111373    29.857473    56961.538   0.62919649    31.464502 
 8046000   0.99798947    0.9301957    29.848639    56959.604   0.62921786    31.326976 
 8048000   0.99743183    1.1001879    29.846897    56957.135   0.62924514    31.595322 
 8050000    1.0053626    1.0638644    29.858842    56952.284   0.62929873    31.549397 
 8052000    1.0048033    0.9806585     29.86404     56960.58   0.62920708    31.422602 
 8054000    1.0002395     1.050443    29.855975    56968.149   0.62912348    31.525668 
 8056000   0.99496416   0.99558217    29.854842    56974.237   0.62905625    31.437502 
 8058000   0.99786884   0.95075958    29.851363    56967.355   0.62913225    31.362587 
 8060000   0.99804946   0.95955753    29.856566    56963.256   0.62917752    31.381664 
 8062000   0.99811354   0.98196068    29.857275    56950.977   0.62931317    31.417644 
 8064000    1.0041098    1.0010156     29.86021    56951.236   0.62931031    31.450865 
 8066000    1.0040343   0.97576161    29.852539    56949.134   0.62933353    31.403007 
 8068000   0.99962408   0.97964248    29.853355    56955.246     0.629266    31.410157 
 8070000   0.99989335   0.98957414    29.858669    56970.454   0.62909803    31.431674 
 8072000   0.99564809   0.92760076    29.854662    56970.333   0.62909935    31.329152 
 8074000    1.0019661    1.0595403    29.857567    56968.677   0.62911765    31.541736 
 8076000   0.99734434    1.0260323    29.851893    56963.303   0.62917699    31.482646 
 8078000    1.0039018    1.0369681    29.860445    56966.415   0.62914263    31.508669 
 8080000    1.0011114   0.94245218    29.862124    56965.125   0.62915687    31.360085 
 8082000    1.0032356   0.97061449    29.863286    56978.753    0.6290064    31.406378 
 8084000    1.0057951   0.99933709    29.866652     56988.31   0.62890091    31.455674 
 8086000    1.0030819   0.98348534    29.862255    56994.584   0.62883168    31.426243 
 8088000    1.0011316    1.0019413     29.85899    56990.963   0.62887164    31.452227 
 8090000     1.001214     1.065022    29.861458     56991.73   0.62886317    31.555025 
 8092000   0.99693968    0.9636145    29.860529    56984.891   0.62893864    31.392657 
 8094000    1.0047302   0.96626363    29.855332    56985.021   0.62893721    31.391676 
 8096000   0.99622823    1.0182112    29.853455    56979.836   0.62899444    31.472247 
 8098000    1.0048339   0.96880165    29.858615    56975.671   0.62904042    31.398741 
 8100000    1.0021017    1.0272987    29.858524    56970.226   0.62910055    31.491488 
 8102000   0.99857401    1.0151972    29.860792    56957.657   0.62923937    31.474164 
 8104000    1.0027768   0.99353659    29.863182    56964.425    0.6291646    31.442318 
 8106000    1.0039567    1.0143091     29.86211    56968.173   0.62912321    31.474368 
 8108000     1.003626   0.93939748    29.867265    56972.287   0.62907778    31.360558 
 8110000    1.0060082    1.0011747    29.860939    56984.351    0.6289446    31.452772 
 8112000    1.0013484   0.98682165    29.857418    56967.474   0.62913093    31.425965 
 8114000   0.99784722    1.0226451    29.856199    56958.763   0.62922715    31.481439 
 8116000    1.0020301    1.0257638    29.858332     56956.67   0.62925027    31.488469 
 8118000    1.0002383    1.0329891    29.859401    56953.054   0.62929022    31.500915 
 8120000    1.0058876    1.0305457    29.863725    56949.758   0.62932664    31.501262 
 8122000    1.0008881   0.91948936    29.859667    56963.146   0.62917873    31.321079 
 8124000    1.0019477     1.013723    29.860559    56961.376   0.62919828    31.471693 
 8126000    1.0035906    1.0374661    29.868394     56958.58   0.62922917    31.517183 
 8128000    1.0012356   0.99349104    29.860461    56959.531   0.62921867    31.439389 
 8130000    1.0049397    1.0136483    29.860917    56963.137   0.62917884    31.471982 
 8132000    1.0033495   0.98490449    29.861665    56960.798   0.62920467    31.426982 
 8134000    1.0007815    1.0605161    29.853555    56958.047   0.62923506     31.53896 
 8136000    1.0026805   0.97407935    29.854373    56958.641    0.6292285    31.402427 
 8138000    1.0021208   0.97067969    29.857543     56954.11   0.62927856     31.40007 
 8140000   0.99949395    0.9787077    29.852321     56951.03   0.62931259    31.407522 
 8142000    1.0015984   0.96496422    29.852905    56945.484   0.62937388    31.386118 
 8144000    1.0041781   0.98362373    29.864583    56955.357   0.62926478    31.427715 
 8146000    1.0055284    1.0310562    29.862569    56959.832   0.62921534    31.501207 
 8148000    1.0019002   0.98034809    29.861753    56963.941   0.62916995    31.419914 
 8150000    1.0041697     0.968542    29.855552    56976.015   0.62903662    31.395275 
 8152000   0.99990315    1.0606669    29.859651    56971.975   0.62908123    31.545709 
 8154000   0.99976472    1.0175174    29.858332    56969.748   0.62910582    31.475735 
 8156000    1.0060994   0.97790155    29.865186     56966.89   0.62913738    31.419539 
 8158000    1.0010374    1.0511984    29.865867    56971.913   0.62908192    31.536871 
 8160000    1.0004312    1.0610907    29.865796    56979.356   0.62899973    31.552745 
 8162000    1.0067879    1.0501194    29.867602    56977.643   0.62901865    31.537058 
 8164000   0.99984676    1.0018551    29.857589    56974.807   0.62904995    31.450237 
 8166000   0.99729622    1.0091855    29.855137    56976.535   0.62903088    31.459487 
 8168000   0.99369468    1.0032982    29.845851    56972.607   0.62907425    31.440731 
 8170000   0.99788237    0.9361429    29.852117    56962.148   0.62918976    31.339972 
 8172000    1.0027284    1.0636031    29.852573    56958.482   0.62923026    31.542897 
 8174000   0.99732271    0.9480138    29.847165    56952.816   0.62929285    31.353639 
 8176000   0.99445842    0.9748934    29.830753     56947.89   0.62934729    31.379808 
 8178000   0.99597936   0.94949631    29.844714    56935.784    0.6294811    31.353093 
 8180000   0.99495657    1.0264563    29.841907    56921.638   0.62963753    31.472141 
 8182000   0.99195975    1.0011828    29.835999    56907.236   0.62979688    31.425691 
 8184000   0.99948901   0.97115999    29.839112    56907.553   0.62979338    31.381141 
 8186000    0.9910927    1.0116776    29.836562    56896.459   0.62991618    31.442613 
 8188000   0.99570045    0.9776807     29.84192    56890.238   0.62998506    31.393831 
 8190000   0.99011474    1.0109753    29.836467     56880.41   0.63009391    31.440951 
 8192000   0.98983145   0.92563646    29.831982     56881.14   0.63008583    31.301046 
 8194000   0.98868038     0.968734    29.834272    56865.525   0.63025884    31.371313 
 8196000   0.99125179   0.93450402    29.834671     56853.11   0.63039647    31.317077 
 8198000   0.99361647   0.99294826    29.836977    56839.658   0.63054567    31.411722 
 8200000   0.99147548    1.0209556    29.824172    56838.813   0.63055504     31.44331 
 8202000   0.98409494    1.0132254    29.827493    56844.881   0.63048773    31.434543 
 8204000   0.99299385   0.93595395    29.832112    56833.505   0.63061393    31.316307 
 8206000   0.98878761    1.0432108     29.82489     56830.36   0.63064883    31.479077 
 8208000   0.99119824    1.0076748    29.831759    56835.126   0.63059594    31.429732 
 8210000   0.99203003     1.020699    29.833885    56829.209    0.6306616    31.452343 
 8212000   0.98788442    1.1019631    29.829925    56821.836   0.63074344    31.577011 
 8214000   0.99170106   0.97110406    29.841284    56819.558   0.63076872     31.38084 
 8216000   0.98773864    1.0357011     29.84262    56811.545   0.63085769    31.484355 
 8218000   0.99346091    1.0403526    29.849833    56814.861   0.63082087    31.499038 
 8220000   0.99986396    1.0568896      29.8481    56824.982   0.63070851    31.523818 
 8222000   0.99646329    1.0142692    29.852795    56849.467   0.63043687    31.461631 
 8224000   0.99939281    1.0029181    29.851553    56864.502   0.63027018    31.442804 
 8226000    0.9999019    1.0159295    29.854281    56881.813   0.63007837    31.466667 
 8228000   0.99679575   0.96508651    29.863696    56888.948   0.62999935    31.395581 
 8230000    1.0042013   0.95545383    29.863091     56901.02   0.62986569    31.380008 
 8232000   0.99989866   0.98481931    29.863293    56910.442   0.62976141     31.42709 
 8234000   0.99951046   0.99134922    29.868646    56917.782    0.6296802    31.443015 
 8236000    1.0031724    1.0642901    29.867224    56918.795   0.62966899    31.557462 
 8238000    1.0023911    1.0161387    29.865185    56931.678    0.6295265    31.479317 
 8240000    1.0069169   0.99159249    29.868163    56938.232   0.62945403    31.443485 
 8242000    1.0066009    1.0394203    29.867897    56957.674   0.62923918    31.519765 
 8244000    1.0029062   0.97183016     29.85771    56964.616    0.6291625    31.402351 
 8246000    1.0021308   0.97890052    29.859704    56949.918   0.62932488    31.415182 
 8248000    1.0026131    0.9380089    29.855861    56942.533   0.62940649    31.346168 
 8250000   0.99945917    1.1052914    29.854237    56950.388   0.62931968    31.610565 
 8252000    1.0016213    1.0025832    29.862887    56955.092    0.6292677     31.45614 
 8254000   0.99015705    1.0272361    29.859504    56949.013   0.62933488    31.491761 
 8256000    1.0032699    1.0112297    29.857436    56954.158   0.62927803    31.464404 
 8258000    1.0006429    1.0075878     29.85639    56954.422    0.6292751    31.457578 
 8260000    1.0016293    1.0203343    29.858634    56951.292   0.62930969    31.479989 
 8262000    1.0001513   0.96089916     29.85573    56954.164   0.62927796    31.382717 
 8264000     1.005881    1.0583173    29.861485    56956.821   0.62924861    31.543359 
 8266000    1.0074454    1.0001948    29.867713    56964.827   0.62916016    31.457443 
 8268000   0.99834101    1.0876786    29.854291    56965.306   0.62915487    31.583084 
 8270000    1.0016658    1.0008969     29.85787    56962.321   0.62918785    31.448646 
 8272000    1.0015227   0.99096636    29.856815    56966.109   0.62914601    31.431913 
 8274000   0.99877289    1.0053619     29.85666    56974.166   0.62905704    31.454865 
 8276000    1.0009124    1.0423186      29.8588     56970.78   0.62909442    31.515655 
 8278000    1.0020301      1.10084    29.861842    56965.641   0.62915117    31.611564 
 8280000    1.0004893   0.99402996     29.85711    56963.782   0.62917171    31.437013 
 8282000   0.99746746    1.0479258    29.847417    56959.262   0.62922164    31.512849 
 8284000   0.99370623   0.98223093    29.855188    56952.994   0.62929089    31.416042 
 8286000    0.9969027    1.0278335    29.853002    56947.639   0.62935006    31.486168 
 8288000   0.99838941    1.0018992    29.854338     56948.32   0.62934254    31.446315 
 8290000    1.0046145   0.98354268    29.871564    56943.086   0.62940038     31.43423 
 8292000    1.0072007    1.0011246    29.872674    56957.705   0.62923883    31.463683 
 8294000    1.0109023    1.0638173    29.877892    56966.601   0.62914057    31.568797 
 8296000    1.0045671   0.98814121     29.86803    56971.559   0.62908582    31.438787 
 8298000    1.0008178   0.94686282    29.864594     56986.16   0.62892464     31.37012 
 8300000     1.000594      1.00557    29.869605    56992.833     0.628851    31.468664 
 8302000    1.0082697   0.93570888    29.868956    56979.999   0.62899264    31.356587 
 8304000    1.0047711    1.0207715     29.86585    56983.387   0.62895524    31.488814 
 8306000    1.0012131    1.0869495    29.862607    57001.249   0.62875815    31.591331 
 8308000    1.0081478    1.0653249    29.866416    57004.863   0.62871829    31.560855 
 8310000    1.0042685   0.98782267    29.863098    57010.342   0.62865787    31.434418 
 8312000   0.99958173    0.9889071    29.856319    57012.174   0.62863767    31.429415 
 8314000   0.99983422   0.98759092    29.857171    56996.424   0.62881137    31.427739 
 8316000    1.0002878   0.95574839    29.850118     56988.64   0.62889727    31.369839 
 8318000   0.99833057    1.0219194    29.849996    56998.855   0.62878456    31.475226 
 8320000    1.0009962   0.97547686    29.860695    56996.521   0.62881031       31.412 
 8322000    1.0008295   0.96375836    29.859662    56985.727   0.62892942    31.392041 
 8324000     1.002071    1.0105982    29.851289    56975.111    0.6290466    31.457845 
 8326000   0.99495152    1.0145474    29.851199    56963.158    0.6291786    31.463694 
 8328000   0.99910634   0.97805641    29.857442     56962.19    0.6291893    31.411913 
 8330000   0.99848063    0.9931894    29.853121    56965.997   0.62914724    31.431749 
 8332000   0.99904945    1.0177544    29.853053    56961.919   0.62919229     31.47061 
 8334000   0.99711534   0.98673318    29.855779    56960.839   0.62920421    31.424003 
 8336000   0.99723754   0.98889978       29.852    56957.735   0.62923851    31.423581 
 8338000    1.0011999   0.97348104    29.856041    56949.563    0.6293288    31.402897 
 8340000    0.9957636    1.0187933    29.850889    56936.366   0.62947466    31.469371 
 8342000    1.0008094    1.0000319    29.852397    56932.507   0.62951733    31.440966 
 8344000   0.99696845    1.0677779    29.855021    56940.134   0.62943301    31.551434 
 8346000    1.0009747   0.94855975    29.854945    56929.527   0.62955029    31.361671 
 8348000    1.0003034    1.0919989    29.850651    56938.237   0.62945398    31.585486 
 8350000   0.99848276    1.0460979    29.854269    56930.591   0.62953852    31.515959 
 8352000    1.0005551    1.0445122    29.852071    56932.636   0.62951591    31.511302 
 8354000   0.99675437   0.96459147    29.849201    56924.962   0.62960077     31.38127 
 8356000    1.0009402   0.92824066    29.844535    56922.535   0.62962761    31.318804 
 8358000    1.0002308   0.98699033     29.84323    56913.057   0.62973248    31.410547 
 8360000     0.994516   0.95170782     29.85026    56903.705   0.62983597    31.361301 
 8362000   0.99769914    1.0274952    29.847614     56900.57   0.62987066    31.478894 
 8364000   0.99855721   0.93070158    29.844952    56906.289   0.62980737    31.322708 
 8366000   0.99332288   0.96028344    29.841828    56906.334   0.62980687    31.366555 
 8368000   0.99220013   0.96768467    29.843901    56899.801   0.62987918    31.380203 
 8370000    0.9975102   0.96887774    29.846891     56898.34   0.62989535    31.385048 
 8372000   0.99799982   0.99021662    29.845145    56904.978   0.62982188    31.417362 
 8374000   0.99882073   0.98484107    29.855505    56908.009   0.62978833     31.41927 
 8376000    1.0025513    1.0687068    29.856136    56921.048   0.62964407    31.553455 
 8378000    1.0011772   0.98320615    29.850592     56927.22    0.6295758    31.412289 
 8380000   0.99937176   0.97311903    29.851818    56928.604    0.6295605    31.397529 
 8382000    1.0010926    1.0417222    29.851397    56922.928   0.62962327    31.505913 
 8384000   0.99919577   0.98915694    29.856994    56919.551   0.62966062    31.427931 
 8386000   0.99447562    1.0912337    29.852811    56907.358   0.62979553     31.58549 
 8388000   0.99715169   0.96860521    29.852903    56918.017    0.6296776    31.391159 
 8390000   0.99470996   0.95414515    29.850631    56911.731   0.62974714    31.365755 
 8392000   0.99976332    1.0121219    29.853348    56903.763   0.62983532    31.460311 
 8394000   0.99764622   0.98279259    29.854839     56907.05   0.62979894    31.415326 
 8396000    1.0036526    1.0325559    29.850778    56912.123   0.62974281    31.490425 
 8398000   0.99596833    1.0271348    29.852726    56912.371   0.62974006    31.483772 
 8400000   0.99487264    0.9543538    29.850053    56903.718   0.62983582    31.365295 
 8402000    1.0001304   0.94945645    29.856458     56907.29   0.62979629    31.364019 
 8404000    1.0000248    1.0448359    29.855395    56916.917   0.62968976    31.514682 
 8406000    1.0022263   0.99002511    29.862562    56923.565   0.62961622    31.434988 
 8408000    1.0032993    0.9893746    29.861969    56930.922   0.62953486    31.433565 
 8410000    0.9974706    0.9951601    29.856216    56928.193   0.62956504    31.436927 
 8412000   0.99948861   0.97010561    29.856218     56925.82   0.62959128    31.397067 
 8414000   0.99470965     1.075533    29.857739    56929.016   0.62955594    31.566138 
 8416000    1.0004069   0.97768259    29.854561    56930.722   0.62953707    31.407579 
 8418000     1.000429    0.9911636    29.854913    56925.987   0.62958944    31.429215 
 8420000    1.0007512   0.93079699    29.856889     56927.56   0.62957204    31.335349 
 8422000    1.0001278   0.99977999      29.8532     56942.92   0.62940222     31.44166 
 8424000    1.0001665   0.98948385    29.861092    56947.442   0.62935223    31.433318 
 8426000    1.0055899   0.98444596    29.855088    56958.315   0.62923209    31.419608 
 8428000     1.004798    1.0339303    29.854339    56960.189   0.62921139    31.497555 
 8430000    1.0046348     1.012263    29.865575    56955.528   0.62926289    31.474224 
 8432000    1.0071213   0.96508133    29.866043    56960.466   0.62920833    31.399846 
 8434000    1.0007385   0.95135096    29.861036      56956.5   0.62925215    31.372912 
 8436000    1.0008296   0.99944515    29.854011    56960.461    0.6292084    31.442428 
 8438000    1.0071717   0.99522133    29.860423    56960.364   0.62920947    31.442124 
 8440000   0.99817359    1.0289036    29.856615    56967.981   0.62912533    31.492066 
 8442000   0.99915513   0.98815911    29.854264    56963.857   0.62917088    31.424838 
 8444000    1.0051435   0.98842061    29.855943     56961.96   0.62919183    31.426879 
 8446000    1.0023127    1.0056656    29.852007    56957.029    0.6292463    31.450214 
 8448000   0.99774432    0.9461721    29.850815    56952.937   0.62929152    31.354366 
 8450000    0.9972386   0.93480984    29.848274    56944.212   0.62938794    31.333542 
 8452000   0.99424807    1.0003876    29.847502    56930.618   0.62953822    31.436584 
 8454000   0.99565155   0.97766325    29.844061    56936.428   0.62947399    31.397204 
 8456000   0.99146287    1.0139906    29.843914    56913.724   0.62972509    31.454125 
 8458000   0.99048817    1.0041745    29.839327    56894.966   0.62993271    31.433425 
 8460000   0.99012766    0.9602989    29.836737     56882.66   0.63006898    31.360854 
 8462000   0.98935632   0.98693306    29.839612    56870.224   0.63020677    31.405658 
 8464000   0.99173077   0.99535424    29.834942    56858.651   0.63033504     31.41403 
 8466000   0.99513028    0.9456846    29.831227    56856.223   0.63036195    31.331452 
 8468000   0.99787076    1.0361244    29.834751    56849.386   0.63043776    31.478251 
 8470000   0.98789299   0.96875469    29.829628    56842.092   0.63051867    31.366069 
 8472000    0.9909586    1.0245822    29.834611     56853.91   0.63038761    31.459932 
 8474000   0.99556891   0.99865907    29.839686    56850.393   0.63042661    31.423787 
 8476000   0.99059302    1.0458862     29.83768    56854.379    0.6303824     31.49681 
 8478000    0.9835056   0.97018584    29.830625    56848.872   0.63044347    31.369519 
 8480000   0.98643941   0.94836026    29.830089    56849.279   0.63043895    31.334375 
 8482000   0.98826761   0.99737632    29.837157      56845.5   0.63048087    31.419087 
 8484000   0.99779204   0.97089014     29.83958    56846.386   0.63047104    31.379524 
 8486000    1.0000218    1.0377056    29.845026    56854.708   0.63037875    31.491188 
 8488000   0.99351595    1.0428423    29.843795    56860.649   0.63031289    31.498279 
 8490000   0.99317795    1.0610899    29.840445    56870.633   0.63020223    31.524175 
 8492000   0.99160935   0.96899776    29.847355    56870.026   0.63020896    31.384937 
 8494000     1.001342    0.9701304    29.852108    56875.329    0.6301502     31.39163 
 8496000   0.99929058    1.0384297    29.856891    56880.169   0.63009658     31.50494 
 8498000   0.99815909   0.97968988    29.848705    56884.252   0.63005135    31.403642 
 8500000    0.9937028   0.99894486    29.849754    56886.064   0.63003129    31.435302 
 8502000    1.0039816    1.0159217    29.861679    56897.786   0.62990148    31.474505 
 8504000    1.0070716   0.99244179    29.863771    56914.216   0.62971965    31.439777 
 8506000    1.0052469   0.98073774    29.863078    56926.558   0.62958312    31.420836 
 8508000    1.0066264    1.0125239    29.857068    56945.853   0.62936979    31.465858 
 8510000    1.0014078   0.95140496     29.86362    56947.247    0.6293544    31.375336 
 8512000    1.0022782    1.0157432    29.857795    56953.749   0.62928254    31.471924 
 8514000    1.0021808    1.0644305    29.854015    56956.814   0.62924868    31.545605 
 8516000   0.99788637   0.95798877    29.854915    56964.757   0.62916094     31.37756 
 8518000   0.99788162   0.95852161    29.857858    56953.168   0.62928896     31.38104 
 8520000   0.99889765   0.99993022    29.843555    56953.578   0.62928443    31.432551 
 8522000    0.9992442    1.0068627    29.853257    56960.855   0.62920404    31.453473 
 8524000   0.99891647    1.0389014    29.849952     56973.31   0.62906648    31.501449 
 8526000   0.99238492   0.99042563    29.839855    56966.038   0.62914679    31.414091 
 8528000   0.99538676    1.0119618    29.844985    56955.034   0.62926835    31.453141 
 8530000   0.99301679   0.97031033    29.846892    56960.369   0.62920941    31.389003 
 8532000   0.99891041   0.96583149    29.849393    56962.986    0.6291805    31.384456 
 8534000     0.999979    1.0659816    29.850855    56957.566   0.62924038    31.544932 
 8536000   0.99573777    1.0052241    29.847323    56962.357   0.62918744    31.444978 
 8538000   0.99977975    1.0063594    29.851206    56956.007   0.62925759    31.450487 
 8540000     0.998029    1.0015686    29.846061      56959.2   0.62922233    31.437817 
 8542000   0.99638308   0.97506419     29.85446    56957.039   0.62924619    31.404035 
 8544000    1.0043019   0.96672618    29.856193    56952.887   0.62929207    31.392405 
 8546000    1.0021328    1.0407169    29.856218    56952.398   0.62929747    31.509994 
 8548000    1.0031959   0.98678837    29.849762    56951.017   0.62931273    31.417803 
 8550000    1.0029923    1.0559106    29.848574    56950.107   0.62932279    31.526426 
 8552000   0.99735701   0.99804104    29.852691     56934.26   0.62949795    31.438146 
 8554000    1.0010865    1.0517128    29.849988    56929.527   0.62955028    31.520565 
 8556000   0.99964553    1.0353856    29.845009    56921.817   0.62963555     31.48943 
 8558000   0.99528108   0.92775286    29.850346    56915.571   0.62970466     31.32366 
 8560000    1.0000722    1.0512509    29.854238    56912.215   0.62974178    31.523575 
 8562000   0.99626626   0.95461961    29.854741    56905.769   0.62981312     31.37046 
 8564000   0.99593462   0.97759075    29.844971     56894.21   0.62994108    31.396847 
 8566000   0.99594088   0.97071215    29.847755    56901.159   0.62986415    31.388901 
 8568000    0.9941561    1.0349548    29.850767    56901.226   0.62986341    31.493909 
 8570000    1.0000039    1.0934167    29.854311    56911.654     0.629748    31.590588 
 8572000   0.99837105    1.0383028    29.848294    56920.407   0.62965115    31.497307 
 8574000   0.99602799     1.057418    29.846542    56918.912   0.62966769    31.525869 
 8576000   0.99809452    1.0378322    29.842901    56909.895   0.62976746    31.490862 
 8578000   0.99980021    0.9975589    29.848305     56911.78    0.6297466    31.432369 
 8580000     0.999213   0.95235657    29.851437    56908.209   0.62978612    31.363627 
 8582000    1.0010466   0.98160259    29.861184    56913.515    0.6297274    31.419958 
 8584000    1.0017232   0.98053953    29.860884    56926.761   0.62958088    31.418332 
 8586000    1.0033131   0.98987612    29.866459    56924.203   0.62960917    31.438667 
 8588000    1.0015358    0.9979014     29.85642    56938.795   0.62944781    31.441781 
 8590000   0.99874839    1.0206322     29.85906    56940.071   0.62943371    31.480568 
 8592000   0.99885808   0.99568991    29.852624    56938.564   0.62945036    31.434464 
 8594000    1.0001891    1.0027662    29.858345    56937.477   0.62946238    31.451397 
 8596000   0.99752004    1.0316309    29.851298    56941.124   0.62942207    31.490311 
 8598000   0.99719419    1.0107304    29.853096    56938.534    0.6294507     31.45883 
 8600000     1.003865   0.92348634    29.857023    56936.817   0.62946968    31.324109 
 8602000    1.0040104   0.96515848     29.85695    56935.327   0.62948615    31.390198 
 8604000   0.99874514    1.0090729    29.853222    56938.004   0.62945656    31.456308 
 8606000    0.9957309    1.0359086    29.846933    56941.839   0.62941416    31.492762 
 8608000    1.0023457    1.0509833    29.855193    56945.849   0.62936984    31.525091 
 8610000    1.0018724   0.95828204    29.857041    56955.123   0.62926737    31.379894 
 8612000   0.99989374     1.043358    29.856753    56958.547   0.62922953    31.514905 
 8614000   0.99791312    1.0211122      29.8551    56956.801   0.62924882    31.477848 
 8616000    1.0005593    1.0092544    29.854832    56953.695   0.62928314    31.458648 
 8618000    1.0031376   0.98652784    29.856191    56948.905   0.62933606     31.42376 
 8620000    1.0067142   0.99589501    29.858137    56957.863   0.62923709    31.440839 
 8622000    1.0001207    1.1007054    29.857217     56956.39   0.62925336    31.606442 
 8624000    1.0019107   0.96875925    29.852112    56957.187   0.62924456    31.391671 
 8626000    1.0015489   0.99384033    29.850894    56964.556   0.62916315    31.430517 
 8628000   0.99776745   0.95544694    29.854428    56967.733   0.62912807    31.373112 
 8630000    1.0004929   0.97248139    29.856577    56961.662   0.62919513    31.402173 
 8632000    1.0006351   0.93499381    29.861046    56963.159   0.62917859    31.347101 
 8634000    1.0032444   0.98947582     29.86077    56965.407   0.62915377    31.433479 
 8636000    1.0014473    1.1035496    29.855658    56957.157   0.62924489    31.609426 
 8638000   0.99988491    1.0024896    29.859892    56948.846   0.62933672    31.452822 
 8640000     1.007941    1.0382175    29.864475    56948.685    0.6293385    31.514171 
 8642000     1.002718   0.94524188    29.854452    56957.933   0.62923632    31.356657 
 8644000   0.99939558    0.9482375    29.852668    56957.048   0.62924609     31.35961 
 8646000   0.99876551   0.98452415    29.850905    56954.169    0.6292779    31.415435 
 8648000   0.99209343     1.038756    29.846623    56959.126   0.62922314    31.497478 
 8650000   0.99762241    1.0549061    29.850285    56951.999   0.62930188    31.526597 
 8652000   0.99731433   0.95959157    29.849197    56941.718    0.6294155    31.373772 
 8654000   0.99322844    1.0709087    29.844307    56931.862   0.62952446    31.545447 
 8656000   0.99907748    1.0236832    29.863322    56926.699   0.62958156    31.489296 
 8658000    1.0046067   0.96549183    29.852025    56931.152   0.62953232     31.38569 
 8660000    1.0031703     1.056704      29.8589    56941.513   0.62941777     31.53776 
 8662000    0.9990457    1.0073566    29.857954    56938.672   0.62944918    31.458332 
 8664000    1.0040127   0.95152502    29.870367    56950.026   0.62932368    31.382347 
 8666000    1.0004718    1.0338041     29.86567    56959.608   0.62921782    31.508668 
 8668000    1.0054221    1.0144607    29.868424    56970.661   0.62909573    31.480994 
 8670000     1.008909    1.0342281    29.872375    56971.831   0.62908281      31.5164 
 8672000    1.0062655   0.97529116      29.8701    56976.038   0.62903636    31.420552 
 8674000    1.0092502    1.0270549    29.870819    56984.048   0.62894795    31.503792 
 8676000    1.0030877    1.0269343    29.870265    56984.855   0.62893904    31.503069 
 8678000   0.99910155    1.0193995    29.863259    56994.272   0.62883512    31.484351 
 8680000   0.99953733    1.0174902    29.859382    56995.059   0.62882644     31.47746 
 8682000    1.0024051   0.98206902    29.853303    56992.376   0.62885604    31.414979 
 8684000   0.99967686   0.95213192     29.86435    56985.174   0.62893552    31.378228 
 8686000    1.0013967    1.0419022      29.8494     56986.67   0.62891901    31.506056 
 8688000   0.99709558   0.99987478    29.856952    56991.376   0.62886707    31.446914 
 8690000     1.002916    1.0118731    29.860341    56990.777   0.62887369    31.469366 
 8692000   0.99794007   0.97434409    29.861193    56998.174   0.62879208    31.410742 
 8694000   0.99948339    1.0385188    29.862603    57007.821   0.62868567    31.514491 
 8696000    1.0005242    1.0443837    29.861114    56997.782    0.6287964    31.522039 
 8698000   0.99980313   0.98976396    29.852992    56992.132   0.62885874    31.426897 
 8700000    1.0069082    0.9786806    29.858239    56984.775   0.62893992    31.414319 
 8702000   0.99714013    1.0281493     29.84991    56977.188   0.62902367    31.484426 
 8704000   0.99825664   0.98052412    29.852982    56976.617   0.62902997    31.411769 
 8706000    1.0036931   0.96903842    29.854178    56973.774   0.62906137     31.39463 
 8708000   0.99644552     1.014613     29.85165    56970.168   0.62910118    31.464447 
 8710000    1.0024391    1.0050293    29.855925    56968.858   0.62911565    31.453452 
 8712000    1.0047663    1.0295652    29.858754    56973.358   0.62906595    31.495411 
 8714000   0.99974088    1.0515863    29.850303    56982.918   0.62896042    31.522247 
 8716000   0.99476993     0.970471     29.85258    56970.862   0.62909352     31.39523 
 8718000   0.99889645   0.97047966    29.855286      56965.4   0.62915384    31.397801 
 8720000    1.0029546    1.0492995    29.858764    56954.279   0.62927669    31.526233 
 8722000    0.9961456   0.98907402    29.847753    56953.304   0.62928746    31.419489 
 8724000   0.99583225    0.9510571    29.850453    56953.252   0.62928803    31.361775 
 8726000     1.003361   0.97608121    29.851941    56952.938    0.6292915     31.40302 
 8728000    1.0040109     1.034112    29.851567    56950.701   0.62931622    31.494798 
 8730000   0.99974633   0.94204621    29.855632    56945.299   0.62937592    31.352426 
 8732000    1.0002233    1.0290909    29.854634    56942.719   0.62940444    31.489657 
 8734000   0.99918965   0.98824401    29.852368    56945.214   0.62937686    31.422563 
 8736000    1.0042522   0.98418022    29.858058    56951.642   0.62930582    31.421972 
 8738000   0.99433715    1.0207442    29.847949    56946.445   0.62936326    31.469818 
 8740000     1.004617    1.0755284    29.850627    56940.777   0.62942591    31.559372 
 8742000   0.99502776     1.016425    29.854292    56956.234   0.62925509    31.469575 
 8744000    0.9959383   0.92998284    29.840995    56955.612   0.62926196     31.31889 
 8746000    0.9955867    1.0012738     29.84754     56933.41   0.62950735    31.438107 
 8748000   0.99702885    1.0151638    29.841732    56918.379   0.62967359    31.453939 
 8750000   0.99511375   0.98212928     29.84364    56913.541   0.62972711    31.403251 
 8752000    0.9981584   0.99547269    29.841653    56906.102   0.62980943    31.422246 
 8754000   0.99167239   0.96149308    29.838548    56902.216   0.62985245    31.365085 
 8756000   0.99279842   0.96551121    29.833075    56891.738   0.62996845    31.365709 
 8758000   0.99565157   0.99857193    29.837941    56889.938   0.62998838    31.423005 
 8760000   0.99623184   0.97748843    29.842343    56891.749   0.62996833     31.39399 
 8762000   0.99649923    1.0025113    29.851846    56887.163   0.63001911    31.443086 
 8764000    0.9986111    1.0005955    29.850637    56892.166   0.62996371    31.438975 
 8766000   0.99449298   0.98654938    29.844451    56904.307    0.6298293    31.410827 
 8768000    0.9958015     1.073951    29.837572     56897.11   0.62990897    31.542503 
 8770000   0.99716499    1.0393114    29.845652    56897.119   0.62990887    31.495591 
 8772000   0.99574866    1.0662573    29.842129    56905.785   0.62981294    31.535103 
 8774000    0.9919964    1.0418983     29.84236    56894.007   0.62994332    31.496316 
 8776000   0.99292761   0.94394646      29.8427    56889.603   0.62999209    31.341046 
 8778000   0.99820572    1.0079134     29.85005    56898.745   0.62989087     31.45019 
 8780000   0.99771858   0.99969805       29.856    56913.034   0.62973272    31.443495 
 8782000    1.0031995    0.9250966    29.857953    56922.146   0.62963192    31.327218 
 8784000    1.0007116    0.9734762    29.863434    56933.077   0.62951103    31.409834 
 8786000    1.0040013   0.98379279    29.859593     56945.12    0.6293779    31.422713 
 8788000   0.99700004    1.0348148    29.856326    56955.512   0.62926306    31.500813 
 8790000    1.0020323   0.98954721    29.860877    56962.598   0.62918478    31.433622 
 8792000   0.99969167    1.0083544    29.859478    56960.498   0.62920798    31.462055 
 8794000    1.0028618   0.97983352    29.858815    56957.363   0.62924261    31.415978 
 8796000    1.0020548   0.97894148      29.8571    56966.829   0.62913805    31.413104 
 8798000    1.0022129   0.99553789    29.852863    56965.528   0.62915243     31.43521 
 8800000    1.0006517    1.0064327    29.855915    56964.857   0.62915983     31.45556 
 8802000   0.99760571    0.9429474    29.855376    56966.299   0.62914391    31.354155 
 8804000   0.99242419    1.0445879     29.84041    56959.583   0.62921809    31.500547 
 8806000    1.0011403   0.90863207    29.850137     56949.23   0.62933248     31.29394 
 8808000   0.99228467   0.97230503    29.850202    56951.633   0.62930592    31.395246 
 8810000   0.99401708   0.97320032      29.8503     56949.74   0.62932684    31.396715 
 8812000    0.9990847    1.0411455    29.851893     56947.58   0.62935071     31.50621 
 8814000   0.99379766   0.99622779    29.851659    56949.115   0.62933374    31.434647 
 8816000   0.99587556   0.96500025    29.848011    56934.675   0.62949336     31.38099 
 8818000   0.99634893    1.0514387    29.843257    56926.606   0.62958259    31.513314 
 8820000   0.99517485   0.90836432     29.84397    56917.169   0.62968697    31.286535 
 8822000   0.99752275    1.1007244    29.837814    56910.651   0.62975909    31.585664 
 8824000   0.99867896   0.95998091    29.849776    56920.039   0.62965523    31.374389 
 8826000   0.99525568   0.96320513    29.852644    56931.696    0.6295263    31.382692 
 8828000    1.0002779   0.97267516    29.849779    56924.526    0.6296056    31.394675 
 8830000    0.9905322   0.95536501    29.848181    56909.249   0.62977461    31.365176 
 8832000   0.99957565    1.0300338    29.852919    56902.564    0.6298486    31.488286 
 8834000   0.99016268   0.93893479    29.848769    56907.455   0.62979446    31.339628 
 8836000    1.0002038    0.9542133    29.850694    56916.698   0.62969219    31.366058 
 8838000    1.0016453    0.9894575    29.842008    56922.362   0.62962953      31.4135 
 8840000   0.99748328    1.0182891    29.851294    56913.911   0.62972303    31.468337 
 8842000    1.0017701    1.0211106    29.856851    56932.072   0.62952214    31.478892 
 8844000   0.99793891   0.98259568     29.85205    56934.281   0.62949772    31.412971 
 8846000    1.0015549   0.93087838    29.858706    56932.645   0.62951581    31.337427 
 8848000    1.0020932    1.0377769    29.859186    56927.581    0.6295718    31.507571 
 8850000   0.99780952   0.99059269    29.849773    56925.378   0.62959617    31.423151 
 8852000   0.99703472   0.95944797    29.857055    56929.841   0.62954681    31.381085 
 8854000    1.0029458   0.97674681    29.855795    56925.904   0.62959036    31.407196 
 8856000     1.002864     1.012817    29.854284    56922.329    0.6296299    31.462875 
 8858000    0.9996056    1.0168132    29.856839    56908.791   0.62977967    31.471393 
 8860000    1.0024282    1.0405338     29.85411    56916.312   0.62969645    31.506548 
 8862000    1.0018413   0.94297621    29.854565      56930.5   0.62953953    31.352448 
 8864000    1.0019738    1.0580232    29.862175    56930.202   0.62954282    31.542796 
 8866000    1.0044051    1.0035636      29.8609    56939.573   0.62943921    31.455278 
 8868000    1.0046588    1.0705106    29.861185    56943.176   0.62939939     31.56203 
 8870000     1.005353   0.95938202    29.861392    56946.071   0.62936739    31.385751 
 8872000    1.0015307    1.0278556    29.859731    56935.656   0.62948252    31.492589 
 8874000    1.0099834   0.98414805    29.866388    56943.332   0.62939767    31.430023 
 8876000    1.0084344    1.0053024    29.871282    56950.407   0.62931947    31.468726 
 8878000    1.0073197   0.92492831    29.868293    56968.425   0.62912043    31.338485 
 8880000    1.0051354     1.012663     29.86259    56976.324   0.62903321    31.472462 
 8882000    1.0011649    1.0815212    29.865967    56973.955   0.62905937    31.585235 
 8884000    1.0013581    1.0099282    29.858521    56976.098   0.62903571    31.464039 
 8886000    1.0057028    1.1007698    29.859691    56979.465   0.62899854    31.609727 
 8888000    1.0032593   0.98177124    29.865271    56979.239   0.62900103    31.426113 
 8890000    1.0026878     1.022043    29.861784    56985.078   0.62893658    31.486817 
 8892000    1.0044417   0.98017488     29.85545    56992.071   0.62885941    31.414105 
 8894000    1.0016125   0.97738153    29.849132    56978.057   0.62901408    31.402963 
 8896000   0.99905046   0.99020103     29.85705    56985.737    0.6289293    31.431474 
 8898000   0.99406076   0.96250963    29.854926    56983.765   0.62895107    31.385267 
 8900000    1.0027664    1.0027882    29.857688    56974.729   0.62905082    31.451817 
 8902000   0.99576167     1.104936    29.854866     56983.74   0.62895135    31.611657 
 8904000   0.99769168    1.0290187    29.847198    56984.683   0.62894094    31.483312 
 8906000    1.0020365   0.98634327    29.851713    56981.389    0.6289773    31.419883 
 8908000    1.0023873   0.97448753     29.85293    56983.036   0.62895911    31.402296 
 8910000    0.9934907    1.0254845     29.84897    56970.197   0.62910086     31.47905 
 8912000   0.99208449   0.94460563     29.83641    56954.107   0.62927859    31.337503 
 8914000   0.99362925    1.0282182    29.844291    56950.934   0.62931364    31.478163 
 8916000   0.99392741    1.0080867    29.839263    56936.368   0.62947464    31.440736 
 8918000    1.0000779   0.97448107    29.848992    56930.023    0.6295448    31.396906 
 8920000   0.99968326    1.0289446    29.852054    56920.434   0.62965086    31.486205 
 8922000   0.99537226    0.9425668    29.848361    56921.764   0.62963615    31.345363 
 8924000   0.99412608   0.99232427    29.843496    56930.005   0.62954501    31.419753 
 8926000   0.99796607   0.99328289    29.841181    56922.095   0.62963249     31.41874 
 8928000     1.000059    1.0295384    29.849212    56922.786   0.62962484    31.484374 
 8930000    0.9961644    1.0393501    29.843197    56927.228   0.62957572     31.49407 
 8932000   0.99593866   0.96378487    29.850149    56917.648   0.62968168    31.380739 
 8934000   0.99773459    1.0541193    29.855592    56920.932   0.62964534     31.52974 
 8936000    1.0017522    1.0651898      29.8498    56915.805   0.62970207    31.541378 
 8938000    1.0022195    1.0693984    29.845188     56914.33   0.62971838    31.543405 
 8940000   0.99555279   0.99161232    29.845826    56927.553   0.62957211    31.420884 
 8942000   0.99988504    0.9884295    29.852991     56922.28   0.62963044    31.422848 
 8944000   0.99608612    1.0177546     29.85502    56916.551   0.62969381    31.471289 
 8946000   0.99944588   0.96901396    29.860232    56926.598   0.62958268    31.399369 
 8948000   0.99967782   0.98518046    29.852046    56931.223   0.62953153    31.416988 
 8950000    1.0065284   0.98513543    29.862295    56930.495   0.62953958    31.427145 
 8952000   0.99583054   0.95320842    29.857861    56920.989   0.62964472    31.371744 
 8954000    1.0005061   0.99660599    29.856336    56916.926   0.62968966     31.43903 
 8956000   0.99703948    1.0401299     29.84261    56912.483   0.62973882    31.494295 
 8958000   0.99450199   0.99096488    29.841532    56914.287   0.62971886    31.415194 
 8960000   0.99596307    1.0597848    29.848507    56909.697   0.62976966     31.53132 
 8962000   0.99474213    1.0091799    29.851449    56906.133    0.6298091    31.453808 
 8964000    1.0047536   0.98891545    29.846639    56916.978   0.62968909    31.417121 
 8966000   0.99896622     1.023115    29.847708    56921.456   0.62963955     31.47263 
 8968000   0.99568564    1.0643639    29.844608    56921.222   0.62964214    31.535035 
 8970000   0.99233968    1.0165532    29.846367    56901.176   0.62986396    31.460292 
 8972000   0.99522737   0.97741933    29.842728    56897.783   0.62990153     31.39443 
 8974000   0.99918382   0.97860645    29.851213    56900.563   0.62987074    31.404875 
 8976000   0.98932901    1.0583135    29.848166    56894.455   0.62993837    31.528193 
 8978000   0.99630791    1.0001133    29.844915    56887.171   0.63001902    31.432348 
 8980000   0.99980148   0.98572697    29.850518    56888.649   0.63000266    31.415157 
 8982000   0.99887323    1.0368794    29.857959     56896.07   0.62992049    31.504007 
 8984000    1.0021304   0.99684153    29.856198    56908.222   0.62978597    31.439024 
 8986000    1.0018842   0.96841091     29.85985    56913.634   0.62972609    31.397679 
 8988000    1.0062773   0.96208122    29.859678    56931.223   0.62953154    31.387928 
 8990000    1.0040498   0.99174347    29.855893    56948.104   0.62934492    31.431727 
 8992000    1.0001724    1.0465368    29.863783    56948.931   0.62933578    31.526706 
 8994000    1.0022033    0.8749423    29.868187    56961.656   0.62919519    31.258761 
 8996000    1.0077414   0.98265382    29.863877    56975.417   0.62904323    31.426017 
 8998000    1.0045652    1.0305768    29.864883     56983.02   0.62895929    31.503426 
 9000000   0.99939199   0.99627223    29.855377    56983.921   0.62894934    31.439403 
 9002000     1.008135    1.0533007    29.850576    56986.186   0.62892435    31.525342 
 9004000     1.003462    1.0401283    29.865419    56990.642   0.62887518    31.519369 
 9006000    1.0025738   0.97403554    29.860698    56997.487   0.62879965    31.409737 
 9008000     1.002217   0.95126781    29.858365    57001.598   0.62875431    31.371306 
 9010000    1.0058026   0.97943814    29.868639    57018.725   0.62856544    31.426851 
 9012000    1.0052518   0.98368163    29.870938    57033.654   0.62840091    31.436311 
 9014000    1.0088246    1.0438777    29.869842    57039.639   0.62833497    31.531181 
 9016000    1.0074248    1.0093573    29.867067    57040.065   0.62833028    31.473479 
 9018000    1.0019695    1.0002085    29.857164    57028.264   0.62846031    31.448686 
 9020000     1.003176    1.0149605    29.858762    57019.506   0.62855684    31.473509 
 9022000    1.0006055   0.98221229    29.859441    57022.824   0.62852025    31.422179 
 9024000    1.0028267    1.0421189    29.856423    57018.923   0.62856326    31.514361 
 9026000    0.9981783   0.98549165    29.855676    57008.955   0.62867317     31.42325 
 9028000   0.99488729     1.019907    29.850023    56984.856   0.62893903    31.471654 
 9030000   0.99471351   0.97540624     29.85015    56974.335   0.62905517    31.400739 
 9032000   0.99816865   0.95747952    29.854798    56970.146   0.62910143    31.376778 
 9034000   0.99647561    1.0036896    29.848226    56970.977   0.62909225    31.443683 
 9036000   0.99674579    1.0143672    29.850892    56970.504   0.62909747    31.463308 
 9038000   0.99879902    1.0377384    29.846876     56960.63   0.62920652    31.496157 
 9040000   0.99708727    1.0440309    29.856858    56961.057   0.62920181    31.516153 
 9042000   0.99842589   0.91835868     29.85349    56962.044   0.62919091    31.313077 
 9044000    1.0051268   0.99929407    29.856196    56957.344   0.62924282    31.444286 
 9046000   0.99635054      1.07034    29.852771    56967.001   0.62913615    31.554056 
 9048000   0.99761169   0.98375696     29.84453    56963.607   0.62917364      31.4081 
 9050000   0.99338026   0.98117163    29.854285    56962.285   0.62918824    31.413709 
 9052000   0.99524966     1.029066    29.846666    56963.433   0.62917556    31.482245 
 9054000   0.99088313   0.99752622    29.845211      56956.6   0.62925104    31.430471 
 9056000   0.99859579    1.0676415    29.844582    56942.929   0.62940212    31.540861 
 9058000   0.99865763   0.97140928    29.842628    56924.241   0.62960874    31.385506 
 9060000   0.99293026    1.0251936     29.83883    56907.982   0.62978863    31.466668 
 9062000   0.99752431    1.0481199    29.838959    56906.962   0.62979992     31.50317 
 9064000   0.99373634    1.0397745    29.838174    56902.784   0.62984616    31.489013 
 9066000   0.99128522    1.0444615    29.831384    56898.432   0.62989434    31.489538 
 9068000   0.99301693   0.96020591    29.833194     56891.27   0.62997363    31.357394 
 9070000   0.98512485    1.0131984    29.823081    56873.975    0.6301652    31.430911 
 9072000   0.99141131    1.0087754    29.831062    56862.096   0.63029685    31.431538 
 9074000   0.99376192     1.021318    29.836483    56858.028   0.63034195    31.456744 
 9076000   0.99190797   0.97820362    29.842258     56841.63   0.63052379    31.393673 
 9078000   0.99645296   0.99702444    29.841274    56850.462   0.63042584    31.422783 
 9080000   0.99541646    1.0196503    29.840709    56852.562   0.63040255    31.458168 
 9082000   0.99613633     1.045829    29.843435    56857.308   0.63034993    31.502559 
 9084000    1.0001558    1.0298506     29.85028    56861.351   0.63030511    31.484172 
 9086000   0.99530761    1.0162876    29.850469     56876.48   0.63013745    31.463272 
 9088000   0.99043165    1.0730274    29.850349     56879.23   0.63010698    31.553278 
 9090000   0.99822142   0.99094467    29.849365    56880.875   0.63008876    31.422071 
 9092000    1.0007196   0.97588753    29.850615    56888.291   0.63000662    31.399627 
 9094000    1.0026443    1.0408339    29.855256    56888.873   0.63000017    31.507373 
 9096000   0.99832155   0.95288778    29.849291    56882.466   0.63007113    31.361641 
 9098000    1.0044786    1.0114801    29.855114    56878.561   0.63011439    31.460346 
 9100000   0.99700412   0.99970025    29.846912     56878.28   0.63011751    31.433442 
 9102000    1.0032808   0.99975637    29.842012    56888.461   0.63000473    31.428915 
 9104000   0.99532897    1.0384873    29.846672    56893.804   0.62994558    31.495206 
 9106000    1.0014639   0.96926094    29.850915    56889.592   0.62999221    31.389443 
 9108000    1.0020151    1.0401432    29.849483    56901.903   0.62985591    31.500881 
 9110000    1.0011484    1.0010161    29.853903    56905.427    0.6298169    31.443279 
 9112000    1.0018421   0.97327415    29.850456    56920.242   0.62965298    31.396187 
 9114000   0.99919271    1.0256037    29.842809    56917.673    0.6296814    31.471575 
 9116000    0.9988894    1.0290699    29.843248    56914.369   0.62971796    31.477424 
 9118000    1.0010398   0.93779236    29.843819    56917.126   0.62968745    31.333117 
 9120000   0.99558876   0.97300331    29.841528    56922.611   0.62962678    31.386893 
 9122000   0.99189131    1.0046514    29.840579    56918.864   0.62966822    31.436104 
 9124000   0.99198686    1.0191237    29.835771    56918.455   0.62967275    31.454268 
 9126000   0.99762643    1.0089412    29.836284    56912.868   0.62973456    31.438454 
 9128000    0.9901935   0.97589972    29.838563    56904.454   0.62982768    31.388034 
 9130000   0.99441485    1.0075194    29.836681     56903.59   0.62983724    31.436331 
 9132000   0.98451389    1.0228619     29.83419    56895.949   0.62992182    31.457981 
 9134000   0.99325456   0.99863055    29.839045    56887.296   0.63001764    31.424128 
 9136000   0.99558285    1.0217985    29.847258    56885.655   0.63003582    31.469068 
 9138000   0.99451733   0.99466158    29.845465    56886.438   0.63002715    31.424225 
 9140000    1.0008904     1.044941    29.850144    56887.724    0.6300129    31.508747 
 9142000   0.99412963    0.9888292    29.848554    56890.063     0.629987    31.418156 
 9144000    1.0017518   0.93592677    29.854589    56897.844   0.62990085    31.340421 
 9146000    1.0037426    1.0474475    29.865071    56909.296   0.62977408    31.528283 
 9148000    1.0062367   0.96457238     29.86227     56921.53   0.62963873    31.394216 
 9150000    1.0029294    1.0378835    29.864879     56932.52   0.62951719    31.513576 
 9152000    1.0039302   0.95206182    29.860169    56934.195   0.62949867    31.372582 
 9154000    1.0045799    1.0270432      29.8653    56946.889   0.62935835    31.497189 
 9156000     1.005644    1.0210998    29.868029    56951.456   0.62930788    31.490605 
 9158000    1.0047223    1.0097521    29.854016    56962.247   0.62918867    31.458864 
 9160000    1.0083903    1.0167658     29.86519    56972.295    0.6290777     31.48147 
 9162000    1.0095499    1.0137002    29.858321    56989.127    0.6288919    31.470204 
 9164000     1.007263   0.91757218    29.862217    56988.124   0.62890296    31.321221 
 9166000    1.0025255   0.99148493    29.861768    56991.125   0.62886984    31.438382 
 9168000   0.99699298   0.99244747    29.854511    56988.094    0.6289033    31.432572 
 9170000    1.0012204   0.96097247    29.852727    56976.242   0.62903412    31.380423 
 9172000   0.99778755   0.99083952    29.848891    56966.787   0.62913852    31.423806 
 9174000   0.99635417   0.98875319    29.851029    56961.532   0.62919656    31.422483 
 9176000   0.99696538   0.97389234    29.847131    56948.487   0.62934069    31.394611 
 9178000     1.001162    1.0058628    29.855128    56936.836   0.62946947    31.453081 
 9180000    1.0000038    1.0125196    29.848898    56930.245   0.62954235    31.457241 
 9182000    1.0046716    1.0195617    29.854308    56928.209   0.62956486    31.473779 
 9184000    1.0032183   0.97724765    29.854422    56936.371   0.62947461    31.406903 
 9186000      1.00086    1.0449792    29.852117    56955.942   0.62925831    31.512769 
 9188000   0.99772797    1.0434955    29.852086    56953.989    0.6292799    31.510324 
 9190000    1.0010329    1.0341632    29.855146    56956.811   0.62924871    31.498635 
 9192000    1.0036077   0.94571105    29.859652    56950.988   0.62931305    31.362419 
 9194000    1.0047486   0.98258775    29.854529    56960.684   0.62920593     31.41616 
 9196000    1.0023538   0.97582108    29.854613    56963.101   0.62917923    31.405556 
 9198000   0.99735921   0.98899652     29.85345    56954.913   0.62926968    31.425108 
 9200000    1.0020177   0.96051879     29.85649    56959.649   0.62921736    31.383019 
 9202000   0.99783001    1.0553395     29.85395    56970.475    0.6290978    31.531495 
 9204000    1.0001997    1.0440294    29.851167    56958.512   0.62922992    31.510384 
 9206000    1.0023876   0.92249675    29.856236    56961.712   0.62919457    31.322391 
 9208000   0.99557013    1.0138463    29.846485    56955.062   0.62926803    31.457636 
 9210000   0.99858438    0.9734359    29.847012    56942.486   0.62940701    31.393604 
 9212000   0.99295784   0.97018618    29.846391    56935.665   0.62948242    31.387635 
 9214000    0.9988699    1.0481009    29.844722    56942.173   0.62941047    31.509933 
 9216000   0.99975914    1.0519644     29.84779    56941.923   0.62941323    31.519132 
 9218000    0.9999175   0.99772531    29.855082    56940.652   0.62942729    31.440214 
 9220000     1.001691    1.0480354    29.859206    56946.493   0.62936272    31.524439 
 9222000    1.0030441    1.0067429    29.860552    56958.309   0.62923217    31.460506 
 9224000    1.0113328    1.0452932    29.866888    56962.334   0.62918771    31.528226 
 9226000    1.0090891     1.074746    29.865363    56977.485   0.62902039    31.573966 
 9228000    1.0049169    1.0023813    29.863409    56986.421   0.62892176    31.457218 
 9230000    1.0030655    1.0174133    29.855774      57000.5   0.62876641    31.473884 
 9232000   0.99948847   0.99096293    29.864366    57007.706   0.62868694    31.440608 
 9234000    1.0102155    1.0043531     29.86333    57009.005   0.62867261    31.460907 
 9236000    1.0106451   0.96040849    29.874967     57009.48   0.62866737    31.402657 
 9238000    1.0062887   0.96617913    29.876232     57022.08   0.62852846     31.41344 
 9240000    1.0044969    1.0026489    29.862455    57014.546   0.62861151    31.457477 
 9242000   0.99795278   0.98583715    29.850049    57009.233    0.6286701    31.418181 
 9244000   0.99695252   0.99721129    29.852613    57003.328   0.62873522    31.438672 
 9246000    1.0018386    1.0384829    29.863081    57006.601   0.62869912    31.514877 
 9248000    0.9990641   0.99921108    29.856728    57001.717   0.62875299    31.445923 
 9250000    1.0018197   0.99337966    29.858918     56992.48    0.6288549    31.438582 
 9252000    1.0041968    1.0637353    29.854697    57003.578   0.62873246    31.546569 
 9254000   0.99679766   0.97329583    29.853281    56997.549   0.62879897    31.401146 
 9256000    1.0000108    1.0027272    29.851044    56989.684   0.62888575    31.445495 
 9258000   0.99673307   0.95021402    29.853892    56985.207   0.62893515    31.364722 
 9260000   0.99589265   0.96541732    29.849092    56981.333   0.62897791    31.383991 
 9262000    1.0048914   0.90354631    29.848693    56974.785    0.6290502    31.285059 
 9264000   0.99518245    1.0353846    29.840186    56965.892    0.6291484    31.485879 
 9266000   0.99806626    1.0340472    29.848876    56951.815   0.62930391    31.492036 
 9268000   0.99608068   0.98882277    29.847038    56952.736   0.62929374     31.41836 
 9270000   0.99833549    1.0473389    29.841052    56951.278   0.62930985    31.505318 
 9272000   0.99910926   0.96140407    29.852981     56951.84   0.62930364    31.380707 
 9274000   0.99568039   0.97751218    29.851666    56948.229   0.62934354    31.404891 
 9276000   0.99800412    1.0094031    29.845977    56948.915   0.62933596    31.449894 
 9278000   0.99573125    1.0657332    29.844451    56950.058   0.62932333    31.537909 
 9280000   0.99838632    0.9815448    29.848188    56941.135   0.62942194    31.407626 
 9282000   0.99979249    1.0050625    29.851835    56937.581   0.62946123    31.448537 
 9284000    1.0027008   0.98190694    29.852156    56944.452   0.62938528    31.412261 
 9286000   0.99490125    1.0423308    29.848076    56944.808   0.62938134    31.504196 
 9288000    1.0014709   0.96837303    29.853708     56944.68   0.62938276    31.392316 
 9290000    1.0009151   0.99156943    29.859009    56936.965   0.62946804    31.434259 
 9292000   0.99617262   0.97922658    29.851301    56943.439   0.62939648    31.407119 
 9294000    1.0028161   0.98550882     29.85609    56943.923   0.62939112    31.421903 
 9296000   0.99998924    1.0168073    29.846386    56940.482   0.62942916     31.46183 
 9298000   0.99685947    1.0098337    29.845335    56936.045   0.62947821    31.449575 
 9300000   0.99634564    1.0024653    29.844579    56930.079   0.62954419    31.436946 
 9302000   0.99763514    0.9398956    29.853268    56938.926   0.62944636    31.346478 
 9304000   0.99668099     1.029943    29.849463    56935.701   0.62948202    31.485638 
 9306000   0.99615551   0.98348357    29.843478    56940.866   0.62942492    31.405989 
 9308000    1.0049489     1.051963    29.846081    56934.795   0.62949204     31.51721 
 9310000    1.0013551     1.051435    29.848765    56933.668   0.62950449    31.519023 
 9312000    1.0005024    1.0004089    29.854363    56943.332   0.62939766    31.443834 
 9314000   0.99702988    1.0065401    29.850244     56931.93   0.62952371    31.449136 
 9316000   0.99961834   0.98424369      29.8431    56932.637    0.6295159    31.406593 
 9318000   0.99260422   0.93658748    29.847333    56929.288   0.62955293    31.335035 
 9320000   0.99429643     1.004147    29.844742    56919.844   0.62965738    31.439493 
 9322000   0.99514329   0.94629786    29.840926    56910.176   0.62976435    31.343549 
 9324000   0.99432483      1.04314    29.834212    56908.458   0.62978336    31.490559 
 9326000   0.98926618    1.0064476    29.834563    56891.493   0.62997116    31.432172 
 9328000   0.99155059     1.011362    29.829464     56885.62   0.63003621    31.434708 
 9330000   0.99896968    1.0171238    29.839154    56877.553   0.63012556    31.453314 
 9332000    0.9951755   0.99828533    29.836215    56880.939   0.63008805    31.420574 
 9334000   0.99426397   0.98166255    29.840269    56884.597   0.63004753    31.398346 
 9336000   0.99423977    1.0179571    29.839647    56890.711   0.62997982    31.455504 
 9338000   0.99220947   0.97239803    29.838643    56882.527   0.63007046     31.38196 
 9340000    0.9912708   0.97693365     29.83181    56864.472   0.63027051    31.381833 
 9342000   0.99023397    1.0236434    29.836966     56863.84   0.63027752    31.461082 
 9344000   0.99004101    1.0748544    29.832842    56862.814   0.63028889    31.538178 
 9346000   0.99195205   0.99608757    29.831577    56859.115   0.63032989    31.411841 
 9348000   0.99574908   0.95277564    29.832126    56859.285   0.63032801    31.343681 
 9350000   0.99666575   0.97903397    29.840879    56858.236   0.63033964    31.394063 
 9352000   0.99623364   0.99848808     29.84115    56855.981   0.63036465    31.425135 
 9354000    1.0029089   0.99855432    29.849936    56871.812   0.63018917    31.434467 
 9356000   0.99464937    1.0565187    29.841666    56885.749   0.63003477    31.518587 
 9358000   0.99655811    1.0638623    29.836569        56897   0.62991019     31.52548 
 9360000   0.99114282    0.9801762    29.834084    56907.915   0.62978937    31.390439 
 9362000   0.98894065     1.021172    29.835284    56896.621   0.62991439    31.456412 
 9364000    0.9886105   0.98623344    29.833986    56885.464   0.63003793    31.399342 
 9366000   0.99581678    1.0189371    29.846216    56884.971   0.63004339    31.463465 
 9368000   0.99558901   0.97526123    29.837654     56896.01   0.62992115    31.385881 
 9370000   0.99759823   0.97774622     29.84626    56886.982   0.63002112    31.398186 
 9372000   0.99418472    1.0915286    29.847801    56898.037   0.62989871    31.580664 
 9374000    1.0039816    1.0119785    29.847653    56904.676   0.62982522    31.454414 
 9376000   0.99971733     0.926819    29.856223    56913.367   0.62972904    31.327997 
 9378000    1.0004558    1.0067118    29.857592    56922.655   0.62962629    31.456496 
 9380000    1.0034384    1.0367333    29.858137     56936.97   0.62946799    31.505136 
 9382000     1.002515    1.0238012    29.856087    56950.403   0.62931951    31.482925 
 9384000    1.0036314    1.0010511    29.857351    56956.013   0.62925753    31.448195 
 9386000   0.99629117   0.97690937    29.850867    56966.204   0.62914495    31.403624 
 9388000   0.99497639   0.97373702     29.84438    56952.023   0.62930162    31.391709 
 9390000   0.99403693   0.94876985    29.841657    56954.277   0.62927671    31.349372 
 9392000   0.99670325   0.92404041    29.846508    56940.664   0.62942715    31.314573 
 9394000   0.99209732    1.0055408    29.840797    56938.634   0.62944959    31.438289 
 9396000    1.0005518    1.0032616    29.845616    56938.653   0.62944938    31.439487 
 9398000   0.99449075    0.9413649     29.84395    56949.689   0.62932741    31.339777 
 9400000   0.99422825    1.0084077     29.83906    56932.592   0.62951639    31.440937 
 9402000   0.99637398    1.0047126    29.846518    56930.687   0.62953746    31.442472 
 9404000    1.0020883    1.0093109    29.846827    56938.968    0.6294459    31.450318 
 9406000    0.9972397   0.95243263    29.853192    56938.062   0.62945592    31.366297 
 9408000   0.99618257    1.0064342    29.850346    56936.485   0.62947335    31.449197 
 9410000    1.0005393   0.97442769    29.855888    56941.712   0.62941557    31.404035 
 9412000    1.0002926    1.0255277    29.854162    56937.723   0.62945967    31.483381 
 9414000   0.99723125   0.96659046    29.853158     56936.88   0.62946899    31.388723 
 9416000    1.0013788   0.97215308     29.86112    56947.425   0.62935243    31.405808 
 9418000    1.0015696   0.99409032    29.853169    56945.945   0.62936878    31.432673 
 9420000    1.0036501    1.0058561    29.860821    56952.082   0.62930097    31.459191 
 9422000    1.0050459    1.0867266    29.864707    56948.277     0.629343    31.591471 
 9424000    1.0040101    1.0186835    29.862015    56957.018   0.62924643    31.480909 
 9426000    1.0012065   0.92457101    29.860755    56962.191   0.62918928    31.330219 
 9428000    1.0016743    1.0438425      29.8599    56956.019   0.62925746    31.518748 
 9430000    1.0024468     1.050525    29.857137    56959.824   0.62921542    31.526716 
 9432000   0.99849365   0.99658006    29.859741    56955.736   0.62926058    31.443473 
 9434000    1.0062293   0.94830616    29.861455    56950.169    0.6293221    31.368325 
 9436000    1.0064989   0.96662247    29.861586    56951.466   0.62930777    31.397595 
 9438000   0.99832178    1.1020572    29.859077     56949.73   0.62932695    31.610244 
 9440000     1.001513    1.0564327     29.86015    56960.145   0.62921188    31.539128 
 9442000    1.0099876      1.02016    29.863736     56952.89   0.62929203    31.484859 
 9444000    1.0004137    1.0207883    29.854528    56953.384   0.62928657    31.476664 
 9446000    1.0013793    1.0576216    29.858341    56955.293   0.62926548    31.539065 
 9448000     0.998727   0.94228944    29.855412    56953.539   0.62928487     31.35281 
 9450000   0.99751706   0.95815376    29.850227    56950.861   0.62931446    31.372763 
 9452000    1.0024385    1.0617741    29.853011    56956.955   0.62924712    31.540383 
 9454000    1.0017356   0.99565188    29.863643    56958.389   0.62923128    31.445974 
 9456000   0.99923368   0.95061203    29.863503     56958.88   0.62922586    31.374267 
 9458000    1.0014286   0.94546556    29.868269    56961.207   0.62920015    31.370915 
 9460000    1.0090399   0.98173443    29.866993    56966.937   0.62913686     31.42744 
 9462000    1.0122206   0.99633794    29.872032    56976.223   0.62903433    31.455948 
 9464000   0.99911004    1.0834084    29.864143    56985.199   0.62893524     31.58675 
 9466000    1.0034951    1.0104068    29.858252     56981.93   0.62897132    31.464695 
 9468000    1.0026922   0.94494655    29.852942    56982.172   0.62896865    31.355317 
 9470000      1.00118    1.0284627    29.854826    56973.733   0.62906182    31.489741 
 9472000   0.99728201   0.98325381    29.847468    56969.897   0.62910417    31.410411 
 9474000   0.99418086   0.94082642    29.855792    56964.706    0.6291615    31.351158 
 9476000    1.0019844   0.99140825    29.842724    56958.473   0.62923036    31.418312 
 9478000   0.99910153   0.99123034    29.845223    56948.758   0.62933769     31.42026 
 9480000    1.0020965    1.0630675    29.851417    56940.715   0.62942658    31.540363 
 9482000   0.99724683    1.0266087    29.848226    56937.959   0.62945705    31.479169 
 9484000    1.0011018   0.97441972    29.853107      56937.4   0.62946323    31.401124 
 9486000   0.99765349   0.91944005    29.854127    56932.783   0.62951428    31.314681 
 9488000    1.0012314    1.0318245    29.853112     56933.57   0.62950558    31.492215 
 9490000   0.99919606   0.93237706     29.85224    56936.217   0.62947631    31.333435 
 9492000   0.99766894    1.0461874    29.857739    56946.457   0.62936313    31.520034 
 9494000    1.0006975   0.93015823     29.84393    56951.807     0.629304    31.322004 
 9496000   0.99647262    1.0218526    29.846495    56953.353   0.62928692    31.470321 
 9498000    1.0006038    1.0404325    29.853793     56950.49   0.62931855    31.507062 
 9500000    1.0042996    1.0462734      29.8496    56949.521   0.62932926    31.512121 
 9502000    1.0041536    1.0068952    29.862711    56956.578   0.62925129    31.462859 
 9504000    1.0057701   0.96251309    29.856296    56963.004    0.6291803    31.386085 
 9506000    1.0053187    1.0424734    29.860037    56956.482   0.62925235    31.516722 
 9508000    1.0014048    1.0088112    29.864459    56954.126   0.62927837    31.467583 
 9510000    1.0105565   0.97271931    29.863592    56948.137   0.62934455    31.409199 
 9512000    1.0051765   0.99067284     29.86558    56954.371   0.62927567    31.439887 
 9514000    1.0059504   0.97051385    29.865302    56973.567   0.62906365    31.408093 
 9516000    1.0080003   0.94225336    29.868247     56983.59     0.628953    31.366377 
 9518000    1.0089839    0.9930518    29.876075     56992.34   0.62885644    31.455214 
 9520000     1.008836    1.0749598    29.873815    56998.991   0.62878306    31.583402 
 9522000    1.0072264    1.0374898    29.875264    57005.345   0.62871297    31.525444 
 9524000    1.0014098   0.98349615    29.863939    57008.893   0.62867384    31.428337 
 9526000    1.0042077    1.0028489    29.862227    57020.078   0.62855053    31.457722 
 9528000    1.0043099    0.9835169    29.863313    57018.067    0.6285727    31.427996 
 9530000    1.0001178   0.95073052    29.864715    57008.421   0.62867905    31.376982 
 9532000     1.006481    1.0364769    29.870202    57003.658   0.62873158    31.518722 
 9534000    1.0044327    1.0017456    29.866715    56998.979   0.62878319    31.459865 
 9536000    1.0061153    1.0338962    29.861969    56997.061   0.62880436    31.506194 
 9538000    1.0065566   0.94831653      29.8663    57003.115   0.62873757    31.374587 
 9540000    1.0080881   0.93335796    29.865574    57018.163   0.62857164    31.350461 
 9542000     1.000214    1.0137563    29.855145    57016.845   0.62858617    31.467901 
 9544000    1.0010696   0.88294586    29.861334    57018.973   0.62856271     31.26604 
 9546000   0.99919121   0.97905673    29.855027    57007.136   0.62869322    31.412316 
 9548000    1.0021151    1.0703663    29.862569    56999.355   0.62877905    31.564862 
 9550000   0.99671355   0.93648353    29.856001    57005.477   0.62871152    31.345529 
 9552000    1.0033485    1.0252677    29.850604    56996.017   0.62881587    31.481078 
 9554000   0.99998484    1.0433515    29.859542    57001.485   0.62875554    31.518933 
 9556000    1.0009156    1.0778966    29.856622    56993.964   0.62883852     31.57073 
 9558000    1.0059103   0.97924992    29.856143    56995.007   0.62882702    31.413407 
 9560000     1.006795   0.93644582    29.858278    57001.695   0.62875324    31.347648 
 9562000    1.0009159    1.0200599    29.856568    57009.271   0.62866968    31.479137 
 9564000    1.0072778    1.0059345    29.861001    57008.437   0.62867887    31.461078 
 9566000    1.0056425    1.0204746    29.865773    57004.643   0.62872071     31.48887 
 9568000    1.0082327   0.97997309    29.868749    57009.571   0.62866637    31.427561 
 9570000    1.0070166   0.99403991    29.861251    57016.405   0.62859101    31.442629 
 9572000    1.0046396   0.95221904    29.856462    57008.374   0.62867957    31.371095 
 9574000    1.0031985   0.98644534    29.859507    57007.893   0.62868488    31.428568 
 9576000    1.0003615   0.99710887    29.854234    57012.159   0.62863783    31.440376 
 9578000    1.0015362   0.99442226    29.857138     57007.08   0.62869384    31.438865 
 9580000   0.99893738   0.97951351    29.855583    56997.634   0.62879803    31.413339 
 9582000   0.99595509   0.98251814    29.846995    56981.193   0.62897946    31.409078 
 9584000    1.0006729    1.0482609    29.855859    56970.881   0.62909331    31.522163 
 9586000   0.99563774   0.97679676    29.845245    56962.056   0.62919077    31.397711 
 9588000   0.99942547   0.93835096    29.846937     56956.53   0.62925181    31.338154 
 9590000   0.99298134    1.0165068    29.839302    56961.506   0.62919685    31.454864 
 9592000   0.99701902   0.99512772    29.847019    56943.762   0.62939291     31.42811 
 9594000   0.99925671     1.046768    29.851121    56949.562   0.62932881     31.51443 
 9596000   0.99325126    1.0141209    29.846879    56947.064   0.62935642    31.458241 
 9598000    0.9981566    1.0034218    29.854423    56949.865   0.62932546    31.448864 
 9600000    1.0052304    1.0240948    29.862335    56947.387   0.62935285    31.489554 
 9602000    1.0015617   0.95145753    29.859608    56944.994   0.62937929    31.371347 
 9604000   0.99789574   0.99203293    29.853296    56943.005   0.62940128    31.429449 
 9606000    1.0025738   0.92800784    29.857959    56938.815   0.62944759     31.33228 
 9608000     0.998976      1.01387    29.856394    56933.331   0.62950823    31.466968 
 9610000    1.0028514    1.0345465    29.859209    56936.807    0.6294698    31.502729 
 9612000   0.99365425    1.0663014    29.849702    56943.446   0.62939641    31.543867 
 9614000   0.99910509   0.98827235    29.857419    56938.788   0.62944789    31.427481 
 9616000   0.99602444     1.040695    29.856966    56932.952   0.62951241    31.510142 
 9618000     0.999942    0.9800741    29.848956    56934.484   0.62949547    31.405876 
 9620000    1.0027848    1.0353758    29.852213    56922.797   0.62962472    31.496646 
 9622000    1.0017607   0.98497184    29.850491    56922.443   0.62962864     31.41486 
 9624000   0.99573525   0.95325035    29.853606    56923.885   0.62961269    31.367633 
 9626000   0.99640103   0.98478818    29.849997    56926.096   0.62958823    31.414175 
 9628000   0.99748768   0.91680231    29.851053    56916.193   0.62969777    31.306994 
 9630000    1.0022913    1.0478174    29.848013    56917.782   0.62968019     31.51206 
 9632000   0.99833648   0.98353382    29.854496    56916.071   0.62969912    31.416407 
 9634000   0.99846212    1.0696855    29.845032    56923.684    0.6296149    31.543984 
 9636000    1.0027496   0.96682436     29.85691    56921.058   0.62964396     31.39242 
 9638000   0.99977193   0.99090389    29.855555    56925.054   0.62959975    31.429418 
 9640000   0.99810713    1.0042868    29.849394    56925.036   0.62959996    31.444513 
 9642000    0.9958513   0.97795739    29.853031     56924.01    0.6296113    31.406303 
 9644000   0.99664427    1.0412637    29.844198     56925.47   0.62959515     31.49806 
 9646000   0.99290066   0.94395043    29.848619    56923.237   0.62961985    31.347858 
 9648000    1.0011732    1.0191165    29.852688    56916.408   0.62969539    31.471116 
 9650000    0.9990619    0.9907554    29.844199    56910.709   0.62975845     31.41743 
 9652000    0.9989161    1.0994218    29.843643    56914.502   0.62971649    31.589543 
 9654000   0.99676054   0.99014613    29.844078    56912.916   0.62973403    31.416402 
 9656000   0.99170589   0.93845942    29.840692    56901.051   0.62986534    31.330628 
 9658000    1.0006904    1.0053987    29.839429    56902.243   0.62985215    31.435674 
 9660000   0.99177043    1.0276963    29.840675    56894.778   0.62993479    31.472108 
 9662000   0.99694867   0.94978563    29.843414    56891.373    0.6299725    31.351076 
 9664000   0.99256808   0.97434475     29.84223    56887.026   0.63002063    31.388759 
 9666000   0.99613885    1.0294749    29.839191    56890.303   0.62998434    31.473318 
 9668000   0.99790648   0.96878143    29.849776    56897.795   0.62990139    31.387765 
 9670000    0.9989784    1.0002769     29.84515    56903.446   0.62983883    31.433297 
 9672000   0.99173016    1.0281272    29.844716    56910.557   0.62976014    31.477285 
 9674000   0.99466877    0.9967739    29.844025    56913.238   0.62973047    31.426883 
 9676000    1.0002184    1.0388761    29.854404    56921.054     0.629644    31.504346 
 9678000   0.99753279    1.0283441    29.853319    56933.762   0.62950346    31.486899 
 9680000   0.99319786    1.0446214     29.84184    56939.378   0.62944136    31.501441 
 9682000    0.9947253   0.97451945    29.840342    56939.324   0.62944197     31.38857 
 9684000   0.99197607   0.94499093    29.844262    56939.299   0.62944225    31.345577 
 9686000   0.99525502   0.95583318    29.846258    56933.396   0.62950751    31.364641 
 9688000   0.99453647    0.9844634    29.837869    56919.062   0.62966603    31.401338 
 9690000   0.99789313   0.91572741    29.837489    56909.914   0.62976725    31.291561 
 9692000    0.9972169   0.97296855    29.844557    56902.428    0.6298501    31.389319 
 9694000    0.9929777   0.96497914    29.841969    56904.159   0.62983094    31.374093 
 9696000     0.995156    1.0293558    29.842486    56902.388   0.62985055    31.476772 
 9698000   0.99806205    1.0686223    29.833183    56900.003   0.62987694    31.529741 
 9700000   0.99167236   0.99847505    29.841147    56885.561   0.63003685    31.425935 
 9702000   0.99443112    0.9522152    29.850784    56880.252   0.63009566    31.362008 
 9704000    0.9955096    1.0053478    29.849767    56885.194   0.63004092    31.445454 
 9706000   0.99353978   0.95439126    29.845416     56882.74    0.6300681    31.360159 
 9708000   0.99549068    1.0099864    29.839625    56882.132   0.63007484    31.442587 
 9710000   0.99562523   0.98418812    29.844797    56875.692   0.63014618    31.406638 
 9712000    1.0050348    1.0774129    29.858254    56883.294   0.63006197    31.568265 
 9714000    1.0011129   0.99560539    29.848614    56896.284   0.62991811    31.429146 
 9716000    1.0026871   0.94741992    29.849728    56905.341   0.62981786    31.354004 
 9718000   0.99293576    1.0249561    29.851287    56913.434    0.6297283    31.478903 
 9720000    1.0004558    0.9952013     29.85377    56909.026   0.62977707    31.434014 
 9722000    1.0005995   0.99673758    29.855107    56908.623   0.62978154    31.437779 
 9724000    1.0009451    1.0258463    29.857996    56911.455    0.6297502    31.486969 
 9726000    1.0046262    1.1018794    29.852955    56925.979   0.62958952     31.60311 
 9728000   0.99848135   0.98464876     29.86179     56927.82   0.62956917    31.425794 
 9730000    1.0043604     1.002481    29.868262     56927.83   0.62956905    31.460591 
 9732000   0.99862828   0.99889099    29.856907    56945.737   0.62937108    31.444033 
 9734000    1.0018859    1.0037777    29.860498    56958.719   0.62922764    31.455752 
 9736000    1.0016441    1.0186252    29.859248    56967.606   0.62912947     31.47835 
 9738000    1.0052503   0.96148388    29.857753    56960.972   0.62920275    31.385852 
 9740000    1.0015922    1.0116518    29.854567     56960.38   0.62920929    31.462382 
 9742000     1.000591   0.95409582    29.860648    56956.958   0.62924709    31.376897 
 9744000    1.0004591    1.0063769    29.856769    56955.846   0.62925937    31.456073 
 9746000    1.0021916    0.9562492    29.848803    56941.175    0.6294215    31.368053 
 9748000   0.99832931    1.0140825    29.846943    56940.208   0.62943219     31.45805 
 9750000    1.0002478   0.96191429    29.855897     56943.35   0.62939746    31.384207 
 9752000   0.99899496    1.0355473    29.848582    56941.354   0.62941953    31.493824 
 9754000   0.99794968    1.0638419     29.85117     56939.62   0.62943869    31.541314 
 9756000    1.0019476    1.0419109    29.857599     56949.24   0.62933237    31.513181 
 9758000    1.0026065    1.0366534    29.859936    56945.447   0.62937429    31.507053 
 9760000    1.0027846   0.98427685    29.862102    56958.354   0.62923167    31.426354 
 9762000    1.0047919    1.0389678     29.85805    56965.579   0.62915186    31.509429 
 9764000    1.0040479   0.99682461    29.854685    56975.331   0.62904417    31.439351 
 9766000   0.99975554   0.98652514    29.853569    56977.083   0.62902483    31.421909 
 9768000   0.99419933    1.0039938    29.848919    56970.913   0.62909296    31.444857 
 9770000    1.0005377    1.0238563    29.852345    56966.689    0.6291396    31.479736 
 9772000    1.0042394    1.0409161    29.860072    56964.829   0.62916015    31.514526 
 9774000    1.0026214    1.0429325    29.850531    56959.898   0.62921461    31.508045 
 9776000   0.99742576    1.0326279    29.858234    56953.603   0.62928415     31.49919 
 9778000   0.99135538   0.99655301    29.848067    56951.263   0.62931001    31.431632 
 9780000   0.99746776    1.0216678    29.854315    56949.545     0.629329    31.477739 
 9782000   0.99977254    1.0906293    29.852047    56939.952   0.62943503    31.584759 
 9784000    1.0014386    1.0246366    29.858687     56941.28   0.62942035    31.486592 
 9786000    1.0044115    1.0575105    29.852515    56949.234   0.62933243    31.532884 
 9788000   0.99990881    1.0544994    29.848346    56956.264   0.62925476    31.524137 
 9790000   0.99867231   0.97270008    29.853506     56959.12   0.62922321    31.399381 
 9792000    1.0013253   0.96998071    29.852157    56966.967   0.62913653    31.393922 
 9794000    1.0034688   0.92870696    29.864372    56974.697   0.62905117    31.340734 
 9796000    1.0003395    1.0162433    29.856206    56973.709   0.62906208    31.471696 
 9798000    1.0021159   0.97851683     29.85609    56978.472   0.62900949    31.411737 
 9800000   0.99946358     0.965672    29.860743     56978.45   0.62900974    31.395969 
 9802000    1.0066939   0.97167992    29.872706    56995.998   0.62881608    31.417959 
 9804000    1.0096438   0.95127627    29.870852    57008.346   0.62867987    31.383986 
 9806000    1.0057057   0.98411388    29.870833    57012.319   0.62863607    31.436308 
 9808000    1.0089631    1.0269434    29.865516    57027.905   0.62846426    31.499568 
 9810000    1.0039612     1.037854    29.858495    57017.937   0.62857413    31.509619 
 9812000   0.99967498    1.0221966    29.855389    57017.636   0.62857744    31.481595 
 9814000    1.0010858    1.0169812    29.850804    57007.743   0.62868653    31.468432 
 9816000    1.0037213   0.99200308    29.856075    56992.131   0.62885875    31.433541 
 9818000   0.99680821    1.0100004    29.843794    56982.708   0.62896273    31.449613 
 9820000   0.99608898   0.97329932    29.846817    56972.495   0.62907549    31.394007 
 9822000    1.0002985   0.99623343    29.840819    56963.585   0.62917389    31.424219 
 9824000   0.99435461    0.9410926    29.844505    56944.971   0.62937955    31.339775 
 9826000    1.0006027    1.0035379    29.848317    56937.253   0.62946486    31.442588 
 9828000   0.99492826     0.959731    29.842996    56933.443   0.62950698    31.367571 
 9830000     0.998972    1.0003246    29.845223    56923.695   0.62961479    31.434012 
 9832000   0.99266168    0.9813692    29.839673    56914.596   0.62971544    31.398106 
 9834000   0.99785174   0.99219575    29.834477    56907.914   0.62978938    31.409918 
 9836000    0.9977843    1.0669213    29.840194    56903.025    0.6298435    31.534141 
 9838000     1.001283   0.96504582     29.84887    56906.603   0.62980389    31.381166 
 9840000   0.99799433   0.97962129    29.842543    56907.219   0.62979708    31.397998 
 9842000   0.99142294    1.0110996    29.838618    56902.873   0.62984517    31.443932 
 9844000    1.0017279   0.99223426    29.839909    56899.908     0.629878    31.415189 
 9846000   0.99720875    1.0132414    29.840833    56898.247   0.62989639    31.449417 
 9848000   0.99692576    1.0092685    29.843255    56892.951   0.62995502    31.445383 
 9850000   0.99468797    1.0375101    29.842085    56899.965   0.62987737    31.489247 
 9852000   0.99564725     1.000658    29.842408    56893.546   0.62994843    31.430884 
 9854000    1.0018002    1.0184251    29.851577    56896.611   0.62991449    31.468344 
 9856000    1.0010687   0.99299845    29.856802    56898.894   0.62988922    31.433267 
 9858000    1.0003867    1.0701409    29.856906    56911.001   0.62975523    31.556203 
 9860000    1.0019733    1.0457303    29.855006    56920.539   0.62964969    31.515819 
 9862000   0.99884219    1.0121298    29.846269    56929.368   0.62955204    31.453967 
 9864000    1.0023631    1.0793778    29.852213    56944.197    0.6293881    31.567177 
 9866000    1.0006846    1.0474435    29.851719    56943.489   0.62939593    31.515923 
 9868000   0.99656938   0.95742849    29.850698    56953.875   0.62928115    31.372162 
 9870000   0.99530196   0.98446625     29.84682    56953.136   0.62928932     31.41123 
 9872000   0.99072341    1.0016542     29.84741    56950.872   0.62931434    31.439069 
 9874000   0.99314787   0.95456225    29.850454    56942.022   0.62941215    31.367047 
 9876000   0.99856683   0.99883749    29.848551    56937.091   0.62946665    31.435351 
 9878000   0.99301756    1.0056679    29.850455    56935.529   0.62948392    31.448062 
 9880000   0.99889203    1.0535668    29.853195    56939.643   0.62943844    31.527015 
 9882000    1.0033236    1.0359808    29.846301    56948.756   0.62933772    31.492445 
 9884000    0.9967969    1.0332768    29.848566     56951.02   0.62931269    31.490479 
 9886000    1.0004748    1.0452018    29.846578    56948.797   0.62933727    31.507375 
 9888000   0.99642819   0.97494778     29.85487    56951.847   0.62930356    31.404119 
 9890000   0.99972942      0.97434    29.848937    56953.754   0.62928249    31.397272 
 9892000    1.0006656   0.97920639    29.855892    56949.144   0.62933343    31.411834 
 9894000    1.0026228   0.98839484    29.850871    56944.449   0.62938532    31.421284 
 9896000   0.99782555    1.0187836    29.849784    56952.592   0.62929533    31.468712 
 9898000    1.0027585   0.96061015      29.8535    56946.843   0.62935886    31.379832 
 9900000    1.0025859   0.96056259    29.861021    56946.015   0.62936801    31.387254 
 9902000    1.0038479    1.0545059    29.855548    56955.449   0.62926376    31.531326 
 9904000    1.0031698   0.95589644    29.861512    56972.938   0.62907059    31.381049 
 9906000   0.99776728   0.95220634    29.857141    56964.442   0.62916442    31.370587 
 9908000   0.99884759   0.99642996    29.853236    56964.098   0.62916822    31.436962 
 9910000     1.001901    1.0224649    29.855608    56963.928    0.6291701    31.480709 
 9912000    1.0054288    1.0132796    29.859895    56968.479   0.62911984    31.470526 
 9914000   0.99981915     1.058184    29.855222    56980.109   0.62899142    31.537573 
 9916000    1.0014225   0.99388796    29.848314    56978.173    0.6290128     31.42839 
 9918000    1.0028008    1.0600946    29.849423    56978.615   0.62900792    31.534767 
 9920000   0.99959423    1.0460306    29.856133    56974.639   0.62905181    31.519002 
 9922000   0.99891385    1.0513626     29.84913     56970.07   0.62910226    31.520341 
 9924000   0.99641345    1.0591511    29.844786    56962.719   0.62918345     31.52816 
 9926000    1.0022498    1.0408359    29.850148     56970.86   0.62909355    31.504649 
 9928000   0.99756198    1.0854853    29.848066    56983.424   0.62895483    31.573921 
 9930000    1.0007794    1.0822037     29.84512    56974.917   0.62904874    31.565501 
 9932000   0.99946629   0.99090426    29.846772    56955.059   0.62926807    31.421465 
 9934000    1.0017841    1.0195511    29.849925    56946.949   0.62935769    31.469912 
 9936000   0.99856037   0.92125353    29.847739    56939.408   0.62944103    31.311344 
 9938000   0.99877854   0.98706077    29.845204    56938.326     0.629453    31.413329 
 9940000   0.99561519    1.0651036    29.841933    56930.198   0.62954287    31.533801 
 9942000   0.99447229    1.0014947    29.845701    56930.497   0.62953956    31.436537 
 9944000   0.99815787    1.0275961    29.840478    56926.234    0.6295867    31.472653 
 9946000    1.0012582   0.96153611    29.844206    56926.998   0.62957825    31.371476 
 9948000   0.99794321   0.98598075    29.843305     56935.88   0.62948004    31.409647 
 9950000   0.99723125   0.95086406    29.848804    56934.904   0.62949083    31.359332 
 9952000   0.99929056     1.026562    29.849735    56934.009   0.62950072    31.480491 
 9954000    1.0024668   0.95912422    29.852272    56944.363   0.62938627    31.376176 
 9956000    1.0013731    1.0027793    29.852589    56945.899   0.62936929    31.445897 
 9958000   0.99450856   0.99346094     29.84117    56935.824   0.62948066    31.419393 
 9960000   0.99210625   0.99215939    29.847218    56920.538    0.6296497     31.42295 
 9962000   0.99438583   0.99591359    29.844282    56914.081   0.62972114    31.425797 
 9964000   0.99536946    1.0168067     29.84417     56918.16   0.62967601    31.458979 
 9966000   0.99184917   0.90410286    29.844325    56914.079   0.62972116    31.280044 
 9968000   0.99160335   0.96507686    29.841063    56900.868   0.62986737    31.373253 
 9970000   0.98956533    1.0571678    29.843333    56886.896   0.63002207    31.521319 
 9972000    1.0021276   0.99728037    29.860513    56888.455   0.63000481    31.443486 
 9974000   0.99795451   0.98003616    29.854702    56891.797   0.62996779    31.410394 
 9976000    1.0022972   0.97751404    29.847496    56890.723   0.62997969    31.399155 
 9978000   0.99999758    1.0185017    29.858987    56895.646   0.62992518    31.475849 
 9980000    1.0017095   0.97764762    29.857305    56905.654    0.6298144    31.409584 
 9982000    1.0026466    1.0119086    29.858646    56915.186   0.62970892    31.465592 
 9984000    1.0074841    1.0175515    29.863505     56916.07   0.62969913    31.479438 
 9986000    1.0092469   0.98418203    29.869683    56925.719    0.6295924    31.432888 
 9988000     1.003271    1.0038674    29.865252    56929.824     0.629547    31.459839 
 9990000    1.0060337   0.93241094    29.855865    56935.282   0.62948665    31.337089 
 9992000    1.0017742   0.97540595    29.855377    56938.929   0.62944633    31.405002 
 9994000    1.0020275    1.0611256    29.853189    56946.447   0.62936323    31.539219 
 9996000    1.0018344    1.0326526    29.851195    56947.476   0.62935186    31.492014 
 9998000   0.99980528   0.97084605     29.84602    56945.895   0.62936934     31.38859 
10000000   0.99690595   0.99346585     29.84892        56938   0.62945661    31.427212 
10002000   0.99235814   0.97602324    29.850074    56944.081   0.62938938     31.40082 
10004000    0.9939949    1.0286912    29.846551    56940.004   0.62943444    31.480861 
10006000   0.99778957   0.98869759     29.84503     56939.39   0.62944124    31.415784 
10008000   0.99739771    1.0113757    29.845171    56938.574   0.62945026    31.451932 
10010000    0.9986756    1.0364192    29.846322    56934.995   0.62948983    31.492765 
10012000   0.99399557   0.90502361    29.845409    56929.299    0.6295528    31.282975 
10014000   0.99747316    1.0916108    29.849926    56933.038   0.62951147    31.583987 
10016000   0.99797263   0.99952919    29.850742    56931.542     0.629528    31.438486 
10018000     1.002264   0.99081281    29.856566    56941.025   0.62942317    31.430726 
10020000   0.99497287   0.96324758    29.843826    56934.703   0.62949305    31.374021 
10022000   0.99995204    1.0725643     29.84819    56925.182   0.62959834    31.551759 
10024000   0.99947342    1.0111619    29.850533    56932.984   0.62951206    31.456796 
10026000   0.99924705    1.0476255    29.854789    56938.137   0.62945509    31.519126 
10028000    1.0000678   0.96491946    29.854783    56943.604   0.62939465    31.387875 
10030000   0.99486144    1.0275865    29.843361    56958.057   0.62923495    31.476433 
10032000   0.99833605   0.94379859    29.850291    56947.891   0.62934728    31.349938 
10034000   0.99079938   0.99498371    29.852004    56942.706   0.62940458    31.432837 
10036000   0.99768325   0.98915713    29.850927    56938.388   0.62945231    31.422384 
10038000   0.99887743    1.0049488    29.851398    56930.379   0.62954087    31.447718 
10040000    1.0067577   0.96515049    29.862839    56939.267    0.6294426    31.396181 
10042000    1.0028366    1.0354392    29.855515     56940.97   0.62942377    31.500573 
10044000    1.0013168   0.96646053    29.856826    56935.762   0.62948135    31.392154 
10046000   0.99974669   0.93863093      29.8569    56937.599   0.62946104    31.348066 
10048000   0.99819467    1.0395958    29.853676    56938.825   0.62944748    31.505277 
10050000   0.99677509    1.0167219    29.856906    56936.605   0.62947202    31.472104 
10052000    1.0005826    1.0133715    29.860715      56949.4    0.6293306    31.470952 
10054000     1.005488    1.0073319    29.854101    56964.643    0.6291622     31.45517 
10056000    1.0003104   0.98118666    29.866379    56977.202   0.62902352    31.426236 
10058000     1.005603    1.0343516    29.860907    56978.464   0.62900959     31.50532 
10060000    1.0007512   0.98264385    29.854823    56978.279   0.62901163    31.417026 
10062000    1.0019864   0.98193302    29.848434    56976.474   0.62903155    31.409458 
10064000   0.99550569   0.99245046    29.856032    56974.443   0.62905397    31.433719 
10066000   0.99835897    1.0897059    29.845536    56967.493   0.62913072    31.577618 
10068000   0.99221976     1.015184    29.838413    56955.041   0.62926826     31.45169 
10070000   0.99241052   0.93660421    29.840781    56936.828   0.62946956    31.328708 
10072000   0.99974642   0.94327302    29.848408    56928.366   0.62956312    31.346706 
10074000   0.99493883    1.0123583    29.848901    56930.207   0.62954276    31.456986 
10076000    1.0012694   0.95185423    29.850715    56938.104   0.62945546    31.362901 
10078000   0.99670987   0.91748638    29.854454     56932.84   0.62951365    31.311907 
10080000   0.99736216    1.0021873    29.851027    56932.499   0.62951742     31.44302 
10082000   0.99808085   0.96432478    29.843466     56923.55   0.62961639    31.375073 
10084000   0.99233119    1.0687677    29.837678    56905.117   0.62982034    31.534619 
10086000   0.99503194   0.99628737    29.835459    56903.263   0.62984086    31.417267 
10088000     0.994716   0.96262928     29.83397    56895.918   0.62992216    31.362142 
10090000    0.9912723    0.9466216    29.842761    56890.375   0.62998355    31.345374 
10092000   0.99121524   0.94072276    29.837251    56881.815   0.63007835    31.330276 
10094000   0.99603685     1.035843    29.825927    56882.774   0.63006773    31.469945 
10096000   0.99210113   0.97144898    29.829713    56873.595   0.63016942    31.371281 
10098000   0.98746209   0.97852156    29.827022    56877.522   0.63012591    31.379921 
10100000   0.99573791    1.0087061    29.837689    56871.715   0.63019025    31.438326 
10102000   0.99362467    1.0015906    29.843981    56880.984   0.63008755    31.433586 
10104000   0.99475593    0.9708186    29.844901    56881.185   0.63008532    31.385674 
10106000   0.99494537    1.0248908    29.838493    56884.619   0.63004728    31.465182 
10108000   0.99404475    1.0213453    29.834226    56886.772   0.63002344    31.455349 
10110000   0.99154298     0.987617    29.843185    56879.995   0.63009851    31.410586 
10112000   0.99352128   0.98672745    29.842143    56876.306   0.63013938    31.408031 
10114000   0.99296466    1.0568182    29.840067    56880.388   0.63009416    31.517306 
10116000   0.99341682    0.9710552    29.844047    56886.793   0.63002321    31.385348 
10118000   0.99816909    1.0066219    29.845602    56895.215   0.62992995    31.443592 
10120000   0.99944137   0.91368214    29.850766    56908.992   0.62977745    31.301567 
10122000   0.99905194    1.0292934    29.850939    56919.606   0.62966002     31.48562 
10124000    1.0000721   0.96480739    29.846092    56931.873   0.62952434    31.378689 
10126000    1.0026085    1.0391614    29.851728    56935.109   0.62948857    31.502531 
10128000    1.0012253    1.0272813    29.852595    56949.594   0.62932845    31.484941 
10130000    1.0054692    1.0368563      29.8545    56961.137   0.62920092    31.502394 
10132000   0.99813691   0.99067905    29.851941    56965.588   0.62915176    31.426567 
10134000    1.0044107   0.97003557    29.862373      56979.3   0.62900035    31.404559 
10136000    1.0021459   0.93537069    29.861011    56969.998   0.62910305    31.347843 
10138000    1.0029176   0.94713633    29.859082    56977.329   0.62902211     31.36481 
10140000    1.0023209   0.98964614    29.861169    56980.471   0.62898743    31.434565 
10142000   0.99977478   0.99499497    29.856639    56959.629   0.62921758     31.43796 
10144000   0.99633931   0.94487864    29.848947    56958.132   0.62923412     31.35058 
10146000    1.0023752    1.0002024    29.854462    56955.449   0.62926376    31.443943 
10148000    1.0016433   0.98950403     29.85773    56934.412   0.62949627    31.429628 
10150000   0.99682819   0.92967276    29.850974     56944.46    0.6293852    31.328087 
10152000     1.003104    1.0354045    29.850255    56958.525   0.62922978    31.495766 
10154000     0.997503    1.0190046    29.846776    56961.437    0.6291976    31.466307 
10156000   0.99827004   0.96653711    29.849418    56947.595   0.62935055    31.385187 
10158000   0.99554404    0.9370494    29.847596    56938.008   0.62945652     31.33626 
10160000   0.99420644   0.96331184    29.839535    56927.289   0.62957503    31.369634 
10162000   0.99422875   0.95853261     29.85069     56925.14    0.6295988    31.373139 
10164000   0.99747579    1.0089139    29.851087    56912.626   0.62973724    31.453205 
10166000   0.99294225   0.98319297    29.839733    56899.199   0.62988584     31.40064 
10168000   0.99360066   0.96688449    29.839475    56883.836   0.63005597    31.374076 
10170000     0.994112    1.0245243    29.838398    56883.754   0.63005688     31.46448 
10172000   0.99555441   0.95779566    29.848582    56882.684   0.63006872    31.368726 
10174000   0.99589321    1.0039172    29.840076    56860.496   0.63031459      31.4328 
10176000    1.0004737   0.97927516    29.854808    56863.772   0.63027828    31.408527 
10178000   0.99819811   0.96425931    29.845785    56872.273   0.63018406    31.375908 
10180000   0.99815904    1.0245285    29.849704    56887.207   0.63001863    31.475892 
10182000   0.99410876    0.9794244    29.851039    56889.825   0.62998964    31.405706 
10184000    1.0015399    1.0234792    29.853725    56888.004    0.6300098     31.47827 
10186000   0.99658863    1.0325096    29.850147     56896.39   0.62991694    31.489267 
10188000   0.99842985   0.92020672    29.850919    56900.246   0.62987426    31.311856 
10190000     1.000006    1.0317177    29.851093    56905.235   0.62981903    31.489211 
10192000   0.99704463   0.88786141     29.85292    56908.298   0.62978513    31.262704 
10194000   0.99328052   0.94632173    29.850125    56910.429   0.62976155    31.352792 
10196000    1.0033572     1.002269    29.860727    56923.758   0.62961409    31.452605 
10198000   0.99996596   0.96069228    29.865676     56931.19   0.62953189    31.391718 
10200000    1.0051551   0.96817899    29.867972    56932.381   0.62951873    31.405939 
10202000    1.0026608    1.0152761     29.86099    56944.262   0.62938738    31.474108 
10204000    1.0095057    1.0420427    29.863346    56948.657   0.62933881     31.51912 
10206000    1.0025992   0.91616655     29.86846    56953.209   0.62928851    31.324336 
10208000    1.0053383   0.99714757    29.870317    56958.398   0.62923118    31.455025 
10210000    1.0035817    1.0226042    29.873079    56966.721   0.62913924    31.498482 
10212000    1.0085472   0.97448894    29.872384    56987.275   0.62891234    31.421867 
10214000    1.0020141   0.99495044    29.862405    56990.176   0.62888032    31.444503 
10216000    1.0008305   0.93314183    29.863234    56991.548   0.62886518    31.347085 
10218000    1.0054926     1.042284    29.858996    56992.762   0.62885178    31.516436 
10220000    1.0041825   0.92133799     29.85895    56994.866   0.62882857    31.324116 
10222000    1.0025977   0.95303496      29.8595    56991.713   0.62886335    31.374988 
10224000     1.003337     1.029266      29.8637     56999.97   0.62877226    31.500645 
10226000   0.99861022    1.0494203    29.865909    56998.731   0.62878593    31.534872 
10228000   0.99758249   0.98323229    29.859496    56986.656   0.62891916    31.422864 
10230000   0.99948202     1.019222    29.861903    56983.664   0.62895218    31.482411 
10232000    1.0086814   0.98750249    29.863629     56989.79   0.62888457    31.433873 
10234000   0.99994683   0.98063466    29.870367    56994.734   0.62883003    31.429826 
10236000    1.0045156   0.98344276    29.861929    56993.317   0.62884566    31.425815 
10238000    1.0026691    0.9963599    29.864778    56994.129    0.6288367    31.449227 
10240000     1.003672   0.98942303    29.862522    56993.681   0.62884164    31.435928 
10242000    1.0011792   0.96477936    29.859093    56987.278    0.6289123    31.393137 
10244000    1.0030267   0.93750142    29.858699    56987.108   0.62891418    31.349365 
10246000    1.0054077   0.96184342     29.86431    56987.872   0.62890575    31.393702 
10248000   0.99770846   0.97355961    29.856073    56980.868   0.62898305    31.403904 
10250000   0.99518232   0.98894104    29.853753    56980.964   0.62898199    31.426041 
10252000   0.99764455   0.97884452    29.854951     56974.23   0.62905633    31.411004 
10254000   0.99852539   0.97127708    29.842656    56957.157   0.62924489    31.386216 
10256000   0.99313101   0.99528206    29.845376    56944.795   0.62938149    31.426741 
10258000   0.99433016   0.98628606    29.848507    56939.346   0.62944172    31.415429 
10260000    1.0010244   0.94022898    29.855243     56935.74   0.62948159    31.348899 
10262000    1.0001361    1.0577615    29.853123    56950.278    0.6293209    31.533921 
10264000    1.0020052   0.91451815    29.862475    56954.617   0.62927295    31.315768 
10266000    1.0016699    1.0247457    29.862875    56951.075   0.62931208    31.491233 
10268000   0.99752461     1.007162    29.860184    56963.868   0.62917076    31.460961 
10270000    1.0015337   0.93245764    29.856411    56966.517   0.62914151    31.338522 
10272000    1.0071171   0.94482742     29.86413    56966.618   0.62914038    31.365905 
10274000    1.0073116   0.97867053    29.866186    56965.631   0.62915129    31.421727 
10276000    1.0054951   0.97186617    29.863231    56973.736   0.62906178    31.408177 
10278000    1.0072952    1.0129056     29.86982    56981.581   0.62897517    31.480226 
10280000    1.0017747    1.0010799    29.861813    56990.592   0.62887573    31.453669 
10282000    1.0074061    1.0024854    29.865614    57000.984   0.62876107    31.459996 
10284000    1.0044769    1.0659098    29.860034    57000.161   0.62877015    31.555264 
10286000    1.0009337    1.0215563    29.855676    57002.631    0.6287429    31.480436 
10288000    1.0072364   0.96463758    29.868057    57000.799   0.62876311     31.40224 
10290000    1.0085437    1.0157314    29.863216     57008.65   0.62867653    31.478882 
10292000    1.0041753    0.9386436    29.870413    57009.026   0.62867238     31.36347 
10294000   0.99829447   0.98303356    29.861239    56998.644   0.62878689     31.42462 
10296000   0.99970156   0.97053731    29.866261    57005.457   0.62871174    31.409953 
10298000     0.998888   0.94040725    29.866765    57003.809   0.62872991    31.362491 
10300000    1.0065699    1.0560579     29.86023     56992.85   0.62885082    31.539576 
10302000   0.99620923   0.98332271    29.866771    56995.877   0.62881742    31.430536 
10304000    1.0027634    0.9786637    29.855592    56995.625   0.62882019    31.411941 
10306000    1.0055145    1.0409113    29.856367    56986.371   0.62892231    31.511438 
10308000    1.0011411    1.0449124    29.853806    56998.032   0.62879363    31.515579 
10310000      1.00393   0.97426707    29.859942    56983.498   0.62895402    31.408969 
10312000    1.0033735   0.96197778    29.863833    56984.808   0.62893956    31.393357 
10314000   0.99820681   0.95092589    29.849447    56984.268   0.62894552    31.361383 
10316000    1.0060611    1.0301915    29.861711    56972.958   0.62907038    31.499352 
10318000    1.0015806    1.0283125    29.859603    56975.344   0.62904403    31.494325 
10320000    1.0013794   0.97490377    29.864676    56978.032   0.62901436    31.414567 
10322000    1.0046408   0.97062579      29.8577     56988.71    0.6288965    31.401079 
10324000    1.0040431    0.9991235    29.860784    56984.667   0.62894111    31.449364 
10326000    1.0079942   0.98185004    29.863335    56989.974   0.62888255    31.424597 
10328000    1.0000195   0.98829802    29.860097    56994.125   0.62883674    31.431726 
10330000    1.0057635    0.9677884    29.857448    56988.929   0.62889408    31.396322 
10332000    1.0001361   0.96804782    29.853854    56990.364   0.62887824    31.393179 
10334000    1.0009628   0.94381421    29.854291    56971.592   0.62908546    31.354587 
10336000    1.0051676   0.96708202    29.862122    56959.547   0.62921849     31.39908 
10338000    1.0040287   0.97347323     29.86498     56955.39   0.62926441    31.411981 
10340000    1.0049599    1.0172516    29.865399    56966.565   0.62914097    31.482289 
10342000    1.0003897    1.0146262    29.855306    56955.137   0.62926721    31.467699 
10344000    1.0022873   0.99177232    29.860836    56951.516   0.62930722     31.43681 
10346000   0.99950068    1.0374117    29.858745    56943.401    0.6293969    31.507008 
10348000   0.99670186    1.0051821    29.857563    56939.008   0.62944546    31.454496 
10350000    1.0007497    1.0378428    29.855121    56945.262   0.62937633    31.504123 
10352000    1.0070815    1.0084728    29.863715    56947.666   0.62934976    31.466119 
10354000    1.0090445    0.9194248    29.862625    56957.134   0.62924514     31.32378 
10356000     1.010047   0.96618894    29.871541    56956.344   0.62925387    31.406993 
10358000    1.0039079     1.018112    29.865942    56959.903   0.62921456     31.48401 
10360000    1.0031268    1.0516546    29.853421    56971.724     0.629084    31.525145 
10362000    1.0040591    1.0464504    29.858265    56972.569   0.62907467    31.521741 
10364000   0.99916075    1.0221561    29.852208    56980.839   0.62898337    31.477301 
10366000     1.008709    1.0152213    29.861671    56988.395   0.62889997    31.475952 
10368000    1.0047853   0.98308356    29.856876    56986.492   0.62892097    31.420004 
10370000    1.0005248    1.0178043    29.858017    56996.285   0.62881291    31.476629 
10372000   0.99897564   0.93838868    29.855109     56985.99   0.62892651    31.347157 
10374000    1.0050614   0.97066662    29.854492    56990.321   0.62887872     31.39798 
10376000      1.00293   0.98683765    29.855479    56988.458   0.62889928    31.424629 
10378000    1.0010173     1.045616    29.849935    56966.875   0.62913754    31.511918 
10380000    0.9983336    1.0310788    29.842655    56965.517   0.62915254    31.481492 
10382000   0.99913754    1.0190429    29.843327     56952.79   0.62929314    31.462673 
10384000   0.99554121   0.96986937    29.843617    56933.434   0.62950708    31.384298 
10386000   0.99702547    1.0567217    29.846092    56934.231   0.62949827    31.524765 
10388000    0.9946463   0.96692214    29.847897    56927.444   0.62957333    31.383734 
10390000    1.0019457    1.0248712    29.850627    56925.474   0.62959511    31.478452 
10392000   0.99759519    1.0132295    29.857907    56922.385   0.62962927    31.467155 
10394000   0.99811514    1.0528066    29.851612    56922.635   0.62962651    31.523725 
10396000   0.99510014    1.0298739    29.852406    56921.772   0.62963605    31.488071 
10398000   0.99964294    1.0054071    29.849493    56921.312   0.62964114    31.446287 
10400000    1.0029024    1.0456717    29.842302    56928.904   0.62955718    31.503265 
10402000   0.99650262    1.0104253    29.846923     56937.07   0.62946689    31.452131 
10404000     1.001432    1.0045377    29.857692    56934.078   0.62949996    31.453463 
10406000   0.99659347    1.0084217    29.849387    56938.415   0.62945201    31.451449 
10408000    1.0003039    1.0055409    29.849612    56929.608   0.62954939    31.446851 
10410000    1.0024783   0.95549403    29.857952    56925.457   0.62959529    31.375584 
10412000   0.99798291    1.0438439    29.852084     56937.95   0.62945716    31.510408 
10414000    1.0023185   0.96792776    29.854126    56934.779   0.62949221    31.391758 
10416000    1.0029276     1.086624    29.856819    56936.682   0.62947117    31.583068 
10418000    1.0026416    0.9633362     29.85238    56939.504   0.62943998    31.382845 
10420000   0.99532355    1.0061978    29.847938    56942.214   0.62941002    31.446574 
10422000    0.9997208   0.99382134    29.847363    56941.503   0.62941788    31.426317 
10424000   0.99389443     1.023265     29.84485    56934.064   0.62950012     31.47037 
10426000   0.99560871    0.9637397    29.836746    56934.654    0.6294936    31.367722 
10428000   0.99989597    1.0208294    29.851911    56929.878   0.62954641    31.473442 
10430000   0.99555306    1.0506461    29.845083    56932.514   0.62951725    31.514054 
10432000   0.99320951    1.0085099    29.843165    56932.326   0.62951933    31.445196 
10434000   0.99865728   0.98520638    29.846675    56917.212    0.6296865    31.411274 
10436000   0.99634299   0.99971929    29.846364    56907.534   0.62979359     31.43374 
10438000   0.99755258    1.0567773    29.851723    56899.623   0.62988115    31.529463 
10440000   0.99772645   0.94885578    29.850594    56899.009   0.62988794    31.356982 
10442000   0.99765973   0.96767559    29.849054    56901.428   0.62986117    31.385386 
10444000   0.99819205      1.00143    29.842639    56897.587   0.62990369    31.432453 
10446000   0.99739274    1.0209718    29.852097    56899.778   0.62987944    31.472998 
10448000    0.9967404   0.98863353    29.843263    56894.246   0.62994068     31.41267 
10450000   0.99899224   0.96551904    29.847567    56885.515   0.63003737    31.380046 
10452000   0.99876347    1.0413908    29.840856    56889.346   0.62999494     31.49387 
10454000   0.99678482    1.0121114    29.853464    56894.014   0.62994325    31.460135 
10456000   0.99831596   0.94951004    29.855183    56903.493   0.62983831    31.362729 
10458000   0.99799696    1.0114276    29.851333    56910.276   0.62976325    31.457377 
10460000    0.9996767    1.0164056    29.848901    56920.123    0.6296543    31.463129 
10462000    1.0026773    1.0402564    29.852567     56931.15   0.62953234    31.504994 
10464000    1.0019952   0.98174079    29.851373     56930.48   0.62953975    31.410831 
10466000    1.0089548    1.0073212    29.853881     56934.77   0.62949232    31.454093 
10468000    1.0047757    1.0591594    29.851868    56951.219    0.6293105    31.534915 
10470000    1.0016368   0.99764896    29.853165    56951.781   0.62930429    31.438485 
10472000    1.0072098    1.0505072     29.85945     56963.64   0.62917327    31.529113 
10474000    1.0022822   0.96715482    29.857618    56957.675   0.62923917     31.39464 
10476000    1.0012768   0.99533836    29.854485    56961.887   0.62919264    31.436415 
10478000   0.99977603    1.0690384    29.851637    56973.306   0.62906653    31.551041 
10480000    1.0050152    1.0308375    29.858777     56982.67   0.62896315    31.497724 
10482000    1.0012953   0.97321566    29.857352    56979.614   0.62899689    31.404602 
10484000   0.99831366     1.028593    29.851803    56982.365   0.62896652    31.487173 
10486000    1.0031735    1.0463077    29.855553    56971.272   0.62908899    31.518764 
10488000   0.99881315   0.98137013    29.855176    56970.598   0.62909644    31.415143 
10490000    1.0058499   0.99265578    29.857117    56980.104   0.62899148    31.435287 
10492000    1.0029621    1.0276841    29.854696    56980.067   0.62899189    31.488555 
10494000   0.99741685   0.99361452    29.854815    56979.394   0.62899932     31.43449 
10496000    1.0012944    1.0325517    29.853435    56980.255   0.62898981    31.495038 
10498000    1.0012035   0.98322561    29.853732    56978.739   0.62900655    31.416872 
10500000    1.0002532   0.96476308    29.853721    56975.262   0.62904494    31.387416 
10502000    1.0097556    1.0502701    29.860988    56975.672    0.6290404    31.530627 
10504000    1.0066475   0.97787031    29.863201    56981.491   0.62897617    31.417902 
10506000    1.0047559   0.97793983    29.854148    56986.144   0.62892482    31.409087 
10508000   0.99842475    1.0513305    29.853419    56981.639   0.62897454    31.524919 
10510000    1.0016268   0.95307544    29.860768    56987.845   0.62890604    31.376218 
10512000    1.0057682   0.96751053    29.864555     56982.86   0.62896106    31.402822 
10514000     0.997195   0.96771245    29.847734    56981.023   0.62898134    31.386274 
10516000   0.99781823    1.0042462    29.845816     56986.58      0.62892    31.442595 
10518000     0.998264    1.0237229    29.850287    56969.662   0.62910677    31.477551 
10520000   0.99916117   0.90740546    29.850875    56970.546   0.62909701    31.293269 
10522000    0.9970211   0.97687119     29.85181     56958.47   0.62923038    31.404296 
10524000   0.99514354    1.0036357    29.841576    56952.542   0.62929588    31.436431 
10526000   0.99286984    1.0463417    29.833659    56938.213   0.62945425    31.495959 
10528000   0.99049032   0.95551285    29.834408    56925.262   0.62959745    31.352065 
10530000    1.0004981    1.0216182    29.845411    56912.896   0.62973425    31.467711 
10532000   0.99222672    1.0232978    29.840335    56912.172   0.62974226    31.465281 
10534000   0.99622008   0.95920384    29.840077    56910.846   0.62975693     31.36321 
10536000   0.99695347    1.0382609    29.843828    56911.875   0.62974555    31.492527 
10538000   0.99403518   0.97472102    29.839378    56917.134   0.62968736    31.387322 
10540000   0.99598563    1.0002416    29.840977     56919.52   0.62966097    31.429517 
10542000   0.99502414    1.0126367     29.85082    56919.644   0.62965959    31.459049 
10544000   0.99772128   0.97684102    29.850914    56910.019   0.62976608    31.402031 
10546000   0.99204811   0.99574525    29.836973    56906.554   0.62980444    31.418012 
10548000   0.98734075   0.94480279    29.836124     56898.56   0.62989291    31.336066 
10550000   0.99295125   0.99882782    29.836632    56885.199   0.63004087     31.42197 
10552000   0.99951051     1.004032    29.837773    56884.316   0.63005065    31.431346 
10554000   0.99727053   0.97390566    29.840797    56884.685   0.63004656    31.386565 
10556000   0.99476341   0.97670154    29.844464    56879.966   0.63009883     31.39454 
10558000   0.99945545   0.97361153    29.843655    56882.321   0.63007274    31.388891 
10560000    1.0013788    0.9928105    29.848538    56882.242   0.63007362    31.424244 
10562000   0.99431066   0.96501534    29.839537    56892.074   0.62996473    31.371394 
10564000   0.99613535   0.96635475    29.840134    56886.935   0.63002164    31.373978 
10566000   0.99189594   0.93514344    29.841716    56884.642   0.63004704     31.32596 
10568000   0.99314605   0.99225604    29.836172    56870.763   0.63020079     31.41068 
10570000   0.99573704   0.99403902    29.842296    56881.005   0.63008732    31.419917 
10572000   0.99696919   0.99188943    29.843155    56871.399   0.63019375    31.417099 
10574000   0.99894085   0.97782882    29.851638    56880.326   0.63009484    31.403513 
10576000    1.0026545   0.99032785    29.860618    56899.589   0.62988153    31.432863 
10578000    1.0021019   0.97682655     29.85673    56910.995   0.62975529    31.407851 
10580000    1.0056993    1.0310623    29.866913    56923.086   0.62962152    31.504503 
10582000     1.003893    1.0248922    29.860605    56933.983   0.62950101    31.488708 
10584000   0.99450269    1.0113422     29.85271    56937.022   0.62946742    31.459373 
10586000    1.0041105   0.97857688    29.864238    56934.496   0.62949534     31.41878 
10588000    1.0053437   0.97267056    29.871625    56940.474   0.62942925    31.416946 
10590000    1.0049826   0.98667642    29.863359    56952.383   0.62929764     31.43126 
10592000    1.0032786    1.0165527    29.865453    56957.352   0.62924274    31.480971 
10594000   0.99634147   0.98582353    29.858354    56960.656   0.62920624    31.425127 
10596000     1.005966    1.0564811    29.854443    56962.839   0.62918213    31.533577 
10598000    1.0005573    0.9632183    29.848936    56973.737   0.62906177    31.380135 
10600000    1.0067736    1.0407891    29.849174    56980.255   0.62898981    31.503874 
10602000   0.99800824   0.94906022    29.848283    56974.805   0.62904999    31.357003 
10604000   0.99794818   0.99330866    29.851058    56962.422   0.62918673    31.429776 
10606000   0.99980115   0.99048223    29.848016    56962.483   0.62918606    31.422243 
10608000    1.0004984   0.98139288    29.857582    56955.248   0.62926598    31.417165 
10610000   0.99969524   0.98827395    29.843199    56947.784   0.62934846    31.413512 
10612000    1.0003981   0.95940823    29.847044    56945.175   0.62937729    31.371421 
10614000   0.99937694    1.0371954    29.856295    56931.853   0.62952456     31.50388 
10616000   0.99593367   0.97465637    29.852252    56926.219   0.62958687     31.40034 
10618000     1.004241    1.0560711    29.850336    56925.841   0.62959105    31.527728 
10620000    1.0028945    1.0231248    29.865616    56919.004   0.62966667    31.490483 
10622000     1.003165    1.0180543    29.855466    56917.389   0.62968454    31.472235 
10624000    1.0000919    1.0106476     29.85516    56919.305   0.62966335     31.46022 
10626000    0.9992152    1.0747216      29.8561     56930.31   0.62954162    31.563249 
10628000   0.99788933    1.0514638    29.854779    56939.147   0.62944392    31.525243 
10630000    1.0008456    1.0163483    29.858337    56939.893   0.62943567    31.473034 
10632000    1.0024211   0.96701524     29.85304    56939.258   0.62944269    31.389344 
10634000   0.99991614    1.0035197    29.852891    56942.723   0.62940439    31.447287 
10636000    1.0041672   0.98465074    29.858638    56958.132   0.62923412    31.423478 
10638000    1.0022003    1.0274703    29.856562    56951.799   0.62930409    31.489271 
10640000    1.0006488      1.08846    29.845547    56954.477    0.6292745    31.575253 
10642000    0.9944061    1.0139162    29.848936    56955.761   0.62926032    31.460219 
10644000   0.99676691    1.0404267     29.84862    56952.634   0.62929486    31.501942 
10646000   0.99807726    1.0085472    29.845231    56950.522    0.6293182    31.447834 
10648000   0.99855274    1.0130832    29.845778    56949.022   0.62933478    31.455547 
10650000   0.99770098    0.9960453    29.844156    56938.487   0.62945122    31.426558 
10652000   0.99616015   0.96544412    29.844621    56929.607    0.6295494    31.378169 
10654000   0.99289147   0.94954216    29.844037     56919.79   0.62965798    31.352066 
10656000    1.0042792   0.98548057    29.849518    56913.618   0.62972626    31.414453 
10658000   0.99780031    1.0324443    29.861147     56910.65    0.6297591    31.500575 
10660000   0.99807281    1.0097694    29.854344    56905.085   0.62982069    31.457609 
10662000   0.99750197     1.045097    29.859309    56906.234   0.62980798    31.518699 
10664000   0.99730377    1.0097029    29.851557    56917.796   0.62968004    31.455074 
10666000    1.0015342    1.0071576    29.856657    56925.444   0.62959544    31.456347 
10668000    1.0065933   0.96914637    29.866444    56933.847   0.62950251    31.405987 
10670000    1.0040227    1.0056572    29.866008     56946.43   0.62936342    31.463903 
10672000    1.0093231    1.0194458    29.867944    56949.568   0.62932874    31.487838 
10674000    1.0052462    1.0684877    29.877379    56953.328    0.6292872    31.575312 
10676000    1.0062158   0.99953217    29.868583    56962.317   0.62918789     31.45719 
10678000    1.0058421    0.9719825    29.870358    56969.019   0.62911386     31.41536 
10680000    1.0048654   0.96804806    29.866472     56967.74     0.629128    31.405186 
10682000    1.0045243    1.0583668    29.871948    56974.761   0.62905046    31.554431 
10684000    1.0135292   0.93984354    29.882689    56986.084   0.62892547    31.377053 
10686000     1.005901    1.0049954    29.872449    56994.468   0.62883296     31.47064 
10688000    1.0096549   0.96970864    29.884031    56995.766   0.62881864    31.426143 
10690000    1.0062646      0.99917    29.871145    57001.141   0.62875935    31.460258 
10692000    1.0110453    1.0179754    29.871842    57005.685   0.62870923    31.490993 
10694000    1.0079898    1.0177396    29.876767    57005.251   0.62871401    31.495531 
10696000    1.0117349   0.96939542    29.882821    57009.618   0.62866585     31.42481 
10698000    1.0112027   0.94307325    29.873121    57014.254   0.62861473    31.373362 
10700000    1.0087914   0.97810558    29.875697    57027.899   0.62846432     31.43204 
10702000    1.0110899    1.0356519    29.879532    57038.328   0.62834941    31.527743 
10704000    1.0114382    1.0450139    29.870788    57039.207   0.62833973    31.533923 
10706000    1.0059828   0.96897587    29.874761    57044.545   0.62828094    31.417026 
10708000    1.0054008   0.98861484    29.863297    57035.715    0.6283782    31.436577 
10710000    1.0000275    1.0422001    29.852073    57028.453   0.62845822    31.510417 
10712000    1.0009978   0.91464348    29.849615    57014.056   0.62861692    31.304624 
10714000   0.99866442    1.0021843      29.8463    57006.502   0.62870021    31.440357 
10716000   0.99297826     1.015664    29.843961      56993.2   0.62884695    31.459082 
10718000    0.9952186   0.94658351    29.850594    56969.513   0.62910842    31.355237 
10720000   0.99998602   0.98061071    29.850845    56957.097   0.62924556    31.409236 
10722000   0.99724072    1.0377009     29.84869     56951.22   0.62931049    31.497639 
10724000   0.99520858    1.0147588    29.845556    56946.959   0.62935758    31.457928 
10726000   0.99744367   0.98346882    29.844812    56942.863   0.62940284    31.407355 
10728000   0.98999397   0.96892068    29.844435    56934.706   0.62949302    31.383643 
10730000   0.99793495   0.92668838    29.849953    56935.007   0.62948969     31.32208 
10732000   0.99142908   0.93748684    29.837819    56920.143   0.62965408    31.326711 
10734000   0.99604527   0.98682472    29.841718    56910.942   0.62975588    31.408714 
10736000    1.0027179   0.96517154     29.85109    56913.938   0.62972273    31.383783 
10738000    1.0017412    1.0172888    29.850776     56916.96   0.62968929    31.466317 
10740000   0.99670668     0.985816    29.853417    56921.444   0.62963968      31.4191 
10742000    1.0012945    1.0218412    29.856336    56920.983   0.62964479    31.479221 
10744000     1.002496    1.0173441    29.854321     56916.78   0.62969128    31.469945 
10746000   0.99998556   0.93750564     29.85969    56920.697   0.62964794    31.348626 
10748000   0.99821216     1.032173     29.85382    56930.355   0.62954113    31.493384 
10750000    1.0006899   0.96005008    29.860436    56935.017   0.62948958    31.385561 
10752000      1.00741    1.0035948    29.869111    56935.977   0.62947896    31.463438 
10754000    1.0001496    1.0291574    29.861177    56939.003   0.62944551    31.496199 
10756000    1.0020438    1.0096664    29.851019    56942.817   0.62940335    31.455183 
10758000    1.0014172   0.99459892    29.863641    56942.027   0.62941208    31.443844 
10760000    1.0043242    1.0146537    29.859739    56951.066   0.62931219    31.472061 
10762000     1.001365    1.0032722     29.85206    56955.611   0.62926197    31.446423 
10764000    0.9993869   0.95655734    29.855425    56958.604    0.6292289    31.375631 
10766000    1.0025286    1.0322023    29.860789     56959.67   0.62921712    31.501244 
10768000   0.99535434    1.0204117    29.854336    56954.391   0.62927544    31.475902 
10770000    0.9980665    1.0076005    29.852181    56942.124   0.62941102    31.453044 
10772000   0.99524651   0.93559743    29.851259    56928.162   0.62956538     31.33736 
10774000    1.0010838    1.0084928    29.847339    56917.927   0.62967859    31.448938 
10776000   0.99850931    1.0036927     29.85806    56920.444   0.62965075    31.452107 
10778000   0.99552114   0.94348979    29.855873    56918.099   0.62967669    31.354245 
10780000    1.0018236    0.9854633    29.857802    56918.532    0.6296719    31.422845 
10782000   0.99299152    1.0020987    29.849417    56923.575   0.62961611    31.441019 
10784000   0.99949088    1.0162214    29.848894    56927.668   0.62957085    31.463044 
10786000    1.0008653    1.0254503    29.857619    56930.048   0.62954453    31.486496 
10788000    1.0053061   0.99329823    29.862994    56936.112   0.62947747    31.440966 
10790000     1.005212   0.97355124    29.868514    56951.636    0.6293059    31.415538 
10792000    1.0007874    1.0606851    29.852187    56962.132   0.62918993    31.537982 
10794000    1.0039666    1.0137006     29.86018    56962.543    0.6291854    31.471312 
10796000     1.003035    1.0233312    29.860204    56973.889   0.62906009    31.486966 
10798000   0.99699143   0.97393795    29.858199    56970.057   0.62910241    31.406338 
10800000    1.0018801   0.98627321    29.865339    56963.246   0.62917763    31.432898 
10802000   0.99972427   0.93126682    29.855251    56962.536   0.62918547    31.335366 
10804000   0.99687735    1.0201042    29.853005    56967.062   0.62913548    31.474443 
10806000   0.99943103    1.0127403    29.848453    56961.233   0.62919986    31.458022 
10808000   0.99382818   0.98093101    29.850084    56949.106   0.62933385    31.408766 
10810000   0.99735534   0.97479253    29.845215    56933.278   0.62950881    31.393712 
10812000    1.0038341    1.0361369    29.854988    56935.783   0.62948111    31.501005 
10814000   0.99986145   0.99463775    29.851702    56933.331   0.62950822    31.431726 
10816000   0.99906107    1.0578123     29.85224    56927.011   0.62957811    31.532432 
10818000   0.99555378    1.0199362    29.846498     56927.51   0.62957259    31.466544 
10820000   0.99098153    1.0152348    29.843674    56923.558    0.6296163     31.45614 
10822000   0.99716129    0.9856385    29.845258    56918.488   0.62967238    31.410578 
10824000   0.99524548    0.9844943     29.84269    56916.305   0.62969654    31.406133 
10826000   0.98760402     1.020238     29.83822    56918.312   0.62967433    31.458483 
10828000   0.99161058   0.98263087    29.842665    56906.307   0.62980716    31.402874 
10830000   0.99831342    0.9929677    29.849203    56904.894    0.6298228    31.425786 
10832000   0.99609321     1.108495    29.848304    56906.114    0.6298093    31.608353 
10834000   0.99836124   0.97511317    29.850784    56911.262   0.62975233    31.399192 
10836000   0.99714993    1.0044579     29.85602    56908.586   0.62978195     31.45095 
10838000   0.99415535     1.051988    29.849073    56923.167   0.62962063    31.519902 
10840000   0.99896082    1.0579798    29.849603    56907.798   0.62979067    31.529494 
10842000    1.0042996   0.97604674    29.854708    56911.857   0.62974575    31.404614 
10844000    1.0000559    1.0428706     29.85494     56917.47   0.62968364    31.511122 
10846000   0.99753216    1.0095328    29.852761    56923.635   0.62961544    31.456173 
10848000    1.0049985    1.0263908    29.860187    56918.803    0.6296689    31.490235 
10850000    1.0020457    1.0105514    29.860442    56932.963   0.62951229    31.465734 
10852000    1.0038994    1.0077629    29.853436    56938.447   0.62945166    31.454453 
10854000   0.99745579    0.9644614    29.856969    56941.027   0.62942314    31.389263 
10856000   0.99533342   0.89808507    29.852491    56946.274   0.62936514    31.279461 
10858000   0.99720169    1.0046294    29.858041    56950.419   0.62931934    31.454416 
10860000   0.99590451    1.0066964    29.849439    56952.098   0.62930079    31.449145 
10862000    1.0013586   0.92209664    29.857923    56954.709   0.62927193    31.323262 
10864000   0.99981845    0.9734866    29.853986    56952.221   0.62929942    31.400923 
10866000    1.0005493   0.97427305    29.856205    56948.585   0.62933961    31.404293 
10868000   0.99665201   0.97679313    29.853332    56948.856   0.62933661    31.405432 
10870000    1.0039162   0.99154991    29.850841    56941.161   0.62942165    31.426176 
10872000   0.99537678   0.93254649    29.849859    56932.743   0.62951473    31.331233 
10874000   0.99528928   0.95824597     29.85667    56928.293   0.62956393    31.378748 
10876000    1.0085808   0.96794485    29.866867    56918.517   0.62967206    31.404087 
10878000     1.003046   0.98631939    29.858568    56923.377    0.6296183    31.425103 
10880000   0.99939451   0.99881447    29.858721    56919.601   0.62966007    31.444997 
10882000    1.0035379   0.95465489    29.856847    56928.734   0.62955906    31.373233 
10884000    1.0011792   0.92787945    29.849248    56941.326   0.62941983     31.32343 
10886000   0.99771697   0.98405939    29.860541    56935.545   0.62948374    31.423821 
10888000   0.99909311    1.0416182    29.855726     56933.72   0.62950392    31.510391 
10890000    1.0004121   0.97316482     29.85084    56930.917   0.62953491    31.396687 
10892000   0.99118876    1.0579642    29.845412    56933.137   0.62951037    31.526027 
10894000   0.99428673    1.0079531    29.840499    56923.532   0.62961659    31.441399 
10896000   0.99585722   0.98011148    29.842886    56912.886   0.62973436    31.399275 
10898000   0.99863294   0.94256526    29.849177    56916.524   0.62969411    31.346039 
10900000    1.0011425    1.0727994    29.849931    56914.676   0.62971456    31.553559 
10902000   0.99726044    1.0297576    29.852393    56918.879   0.62966806     31.48779 
10904000   0.99343758    1.0226939    29.842248    56929.704   0.62954833    31.466736 
10906000   0.99589292    1.0109937    29.841717    56913.244    0.6297304    31.447156 
10908000   0.99458279   0.95173287    29.839517    56907.098   0.62979841    31.350687 
10910000   0.99695261   0.98998736    29.850048    56908.608    0.6297817    31.422001 
10912000    1.0013631    1.0343684    29.853582    56919.371   0.62966262    31.496316 
10914000   0.99540541    0.9697816    29.848166    56924.446   0.62960648    31.388464 
10916000   0.99960335    1.0020941    29.851444     56920.82   0.62964659    31.442962 
10918000      0.99931   0.98828183    29.853159    56920.519   0.62964992    31.422733 
10920000   0.99942076   0.95184476    29.858684    56921.623    0.6296377    31.370418 
10922000   0.99746507   0.89219151    29.854794    56920.517   0.62964993    31.271758 
10924000     1.007645    1.0080656    29.858823    56927.212   0.62957589    31.460005 
10926000    1.0045069    1.0053718     29.85813    56931.216   0.62953161    31.455145 
10928000    1.0071581   0.98577627    29.864581    56935.978   0.62947895      31.4306 
10930000    1.0057451    1.0271496    29.868795    56946.021   0.62936794    31.500828 
10932000    1.0056456   0.98111957    29.867259    56951.781   0.62930429    31.426313 
10934000    1.0045938   0.99306319    29.856928    56951.553   0.62930681    31.434955 
10936000    1.0032866    1.0567914    29.857184    56955.539   0.62926277    31.536596 
10938000    1.0038285    0.9937946    29.850885    56954.446   0.62927484    31.430154 
10940000   0.99833212    1.0608897    29.853624    56962.064   0.62919068    31.539742 
10942000   0.99750095   0.93860404    29.844374    56962.318   0.62918788    31.336144 
10944000   0.99877906   0.98782295    29.847414     56958.54   0.62922961    31.417306 
10946000    1.0026464   0.97358875    29.850636    56951.239   0.62931028    31.397709 
10948000    0.9995902   0.99981926    29.847663    56951.667   0.62930555    31.436429 
10950000     0.998841    1.0663432    29.848032    56967.676    0.6291287    31.542984 
10952000   0.99415858   0.97795788    29.844932    56963.495   0.62917488    31.399282 
10954000   0.99815887    1.0155058    29.846491    56956.978   0.62924687    31.460334 
10956000   0.99901275   0.96258783    29.848769    56956.319   0.62925415    31.378497 
10958000   0.99365433   0.97188171    29.847936     56958.88   0.62922586    31.392503 
10960000   0.99855447    1.0192355      29.8479    56948.521   0.62934031     31.46743 
10962000   0.99984823    1.0307439    29.848148    56944.846   0.62938093    31.485858 
10964000   0.99674035   0.99585884    29.846267    56942.699   0.62940466    31.428491 
10966000    0.9903539    1.0545196    29.846778    56936.459   0.62947364    31.522018 
10968000   0.99602074   0.97568308    29.850853    56936.083   0.62947779    31.400841 
10970000   0.99759889    1.0350515    29.847153    56929.232   0.62955355    31.491257 
10972000   0.99813051    1.0076208    29.848595    56927.987   0.62956732    31.449092 
10974000    1.0023642    1.0485322    29.855375    56937.524   0.62946186    31.521135 
10976000    1.0010147   0.93734565    29.847187    56933.054   0.62951129    31.336192 
10978000   0.99285879    1.0227147    29.846056    56927.709    0.6295704     31.47052 
10980000   0.99443302   0.97289335    29.844415    56921.623   0.62963771    31.389578 
10982000   0.99349976    1.0398827    29.837615     56913.26   0.62973023    31.488929 
10984000    1.0031192    1.0293138    29.848016    56910.484   0.62976094    31.482467 
10986000   0.99152317    1.0425399    29.843288    56902.766   0.62984636    31.498517 
10988000   0.99605339    1.0120432    29.849451    56900.685   0.62986939    31.456202 
10990000    1.0035883    0.9828442    29.854551    56902.902   0.62984486    31.415005 
10992000    1.0008379    1.0146519    29.854813    56909.339   0.62977361     31.46595 
10994000   0.99883078   0.96524042    29.846381    56915.864   0.62970141    31.379235 
10996000   0.99756084    1.0186251    29.846689    56918.779   0.62966917    31.464404 
10998000   0.99636986    1.0679404    29.841126    56919.627   0.62965979    31.537186 
11000000   0.99527183      1.05672    29.844114    56924.864   0.62960185    31.522508 
11002000   0.99511084   0.97733423    29.850373    56929.355   0.62955219      31.4028 
11004000    0.9973896   0.95420366     29.84508    56924.591   0.62960487     31.36064 
11006000   0.99498549   0.96900143    29.848969    56924.528   0.62960557     31.38803 
11008000   0.99786844   0.94442949    29.855263    56926.207     0.629587    31.355341 
11010000    1.0000218   0.99338454    29.852797    56933.163   0.62951008    31.430825 
11012000    1.0046276   0.95222186    29.852597    56936.589   0.62947221    31.365328 
11014000   0.99668838   0.96132854    29.851665    56944.344   0.62938647    31.379071 
11016000   0.99869109    1.0010802    29.848169     56932.77   0.62951442    31.438411 
11018000   0.99945741    1.0121318    29.851385    56927.869   0.62956862    31.459044 
11020000   0.99249685    1.0233447    29.844815    56933.673   0.62950445     31.47045 
11022000   0.99496916   0.95109572     29.84342     56931.35   0.62953013    31.354222 
11024000   0.99775657   0.99206628    29.841228    56925.769   0.62959185    31.416957 
11026000   0.99112885   0.97922364    29.841861    56928.319   0.62956365    31.397262 
11028000   0.99293722    1.0106988     29.84318    56924.183   0.62960939    31.448459 
11030000   0.99631752    1.0287335    29.846698    56921.584   0.62963814    31.480547 
11032000    0.9983047   0.98533858    29.847601    56921.799   0.62963576    31.412535 
11034000   0.99525204   0.96131462    29.845253    56929.615   0.62954932    31.372242 
11036000   0.99192701   0.99398671    29.841723    56936.996   0.62946771    31.420814 
11038000    0.9949267   0.96636947    29.841961    56938.519   0.62945086    31.377219 
11040000   0.99647016   0.96327765    29.846105    56926.545   0.62958327    31.376129 
11042000   0.99918275   0.93412435     29.84694    56913.364   0.62972907    31.330315 
11044000    1.0003219   0.96531277    29.854897    56908.778   0.62977982    31.387675 
11046000    1.0015257   0.97700823    29.855081    56921.222   0.62964214     31.40677 
11048000    1.0030089   0.97773162    29.857859    56926.491   0.62958386     31.41084 
11050000    1.0004454    0.9500452    29.850853    56939.052   0.62944498    31.360191 
11052000    1.0025692    1.0409321    29.857624    56950.821    0.6293149    31.511695 
11054000    1.0015679    1.0401981    29.861471     56959.28   0.62922143    31.514622 
11056000    1.0016242     1.026557    29.862785    56956.453   0.62925266    31.494176 
11058000    1.0087455    1.0083577    29.858659    56960.694   0.62920581    31.461247 
11060000     1.003881    1.0807618    29.860305    56963.419   0.62917572    31.578047 
11062000    1.0060022   0.99553666    29.860995    56961.944     0.629192    31.443242 
11064000    1.0059106    1.0443857    29.858966    56969.349   0.62911022    31.519066 
11066000    1.0079235   0.97104434     29.86574    56968.181   0.62912313    31.409228 
11068000    1.0039733   0.96716609     29.86001     56981.75   0.62897331      31.3977 
11070000    1.0009209   0.99537903    29.856618    56982.448    0.6289656    31.439183 
11072000    1.0047587    1.0092462     29.86166    56986.046    0.6289259    31.466374 
11074000    1.0015344    0.9632824    29.856378    56983.671   0.62895211    31.387945 
11076000    1.0045483    1.0017566    29.853036    56983.387   0.62895524    31.445768 
11078000   0.99775946    1.0453541    29.846762    56976.866   0.62902723    31.508621 
11080000   0.99897684    0.9515796    29.847248    56973.004   0.62906986    31.359925 
11082000   0.99650591    1.0059419    29.853374    56947.941   0.62934672    31.451765 
11084000    1.0026681    1.0164863    29.862823    56943.964   0.62939068    31.477855 
11086000    1.0010949   0.98420348    29.854101    56944.254   0.62938747     31.41785 
11088000   0.99592703    1.0871067    29.849273    56936.793   0.62946995    31.576293 
11090000   0.99628827   0.98797698    29.843321    56934.198   0.62949864    31.412788 
11092000   0.99560713    1.0122883    29.849113    56933.271   0.62950889    31.457174 
11094000   0.99231632   0.97373137    29.835156     56925.74   0.62959216    31.381763 
11096000   0.99811449   0.95523416    29.841518    56912.045   0.62974367     31.35838 
11098000   0.99132806   0.98037371    29.836219    56907.294   0.62979624    31.392871 
11100000   0.99627297    1.0012329    29.840274    56901.185   0.62986386    31.429876 
11102000   0.98972261   0.99022868    29.839261     56890.03   0.62998736    31.411084 
11104000   0.99875428     1.002519    29.849694    56887.084   0.63001999    31.440944 
11106000   0.99495117     1.006444    29.840885    56893.499   0.62994895    31.438544 
11108000   0.99141655   0.94020755    29.846501     56885.66   0.63003576     31.33881 
11110000   0.99266496    1.0142766    29.838252    56871.131   0.63019671    31.447712 
11112000   0.99574055    1.0209693    29.844751    56862.084   0.63029699    31.464573 
11114000   0.99269557   0.99664041    29.840677    56858.114   0.63034099     31.42179 
11116000   0.99406231    1.0174378    29.841591    56854.417   0.63038198    31.455593 
11118000   0.99153239   0.98348746    29.837311     56850.38   0.63042674    31.397345 
11120000   0.99888347   0.98810421    29.840734    56854.059   0.63038595    31.408193 
11122000   0.99634062    0.9647312    29.844061    56856.222   0.63036197    31.374501 
11124000     1.000766    1.0211439    29.847786    56866.386   0.63024931    31.468008 
11126000     0.996158    1.0269507    29.850647    56886.548   0.63002593     31.48066 
11128000     1.000945    1.0063061    29.859415    56896.856   0.62991178     31.45695 
11130000    1.0020306    1.0659294     29.85992    56908.134   0.62978695    31.552443 
11132000    1.0084722    1.0335912    29.867588    56919.119    0.6296654    31.509081 
11134000    1.0051094   0.97889895    29.870753    56933.494   0.62950642    31.425779 
11136000    1.0019243   0.98123096    29.865884    56951.798    0.6293041    31.425116 
11138000    1.0009182    1.0107513    29.860928     56959.04   0.62922409    31.467274 
11140000    1.0052187    0.9969126    29.861496        56964    0.6291693    31.445986 
11142000   0.99641861   0.99552599    29.853461    56975.978   0.62903703     31.43608 
11144000   0.99450485    0.9968441    29.857442    56960.938   0.62920312    31.441739 
11146000    1.0010644     1.014528     29.85667    56958.193   0.62923344    31.468994 
11148000   0.99859838   0.92960285    29.855309    56966.874   0.62913756    31.332892 
11150000   0.99799941   0.98512897    29.864387    56960.592   0.62920694    31.430055 
11152000   0.99833611    1.0315869    29.856219     56958.07   0.62923481     31.49565 
11154000   0.99958538   0.98808753    29.860873    56958.004   0.62923553    31.431172 
11156000    1.0001245   0.99393524    29.859103    56950.173   0.62932206    31.438478 
11158000    1.0034397   0.98989266     29.86614    56962.911   0.62918133    31.439443 
11160000    1.0010804    1.0505063    29.856193    56956.294   0.62925442     31.52564 
11162000   0.99913174    1.0054136    29.872361    56950.483   0.62931864    31.469984 
11164000     1.003809   0.96211404    29.869635     56952.66   0.62929458    31.398512 
11166000    1.0022271    1.0095402     29.86381     56966.08   0.62914632    31.468429 
11168000     1.005477    1.0213812    29.864927     56971.78   0.62908338     31.48853 
11170000    1.0082057   0.95665699    29.855225    56971.793   0.62908324    31.375941 
11172000    0.9983371   0.97269388    29.859303    56975.181   0.62904582    31.405604 
11174000    1.0002986     1.061808    29.855454    56967.665   0.62912883    31.543197 
11176000    1.0002551    1.0326395    29.857803    56973.659   0.62906263    31.499356 
11178000    1.0008016    1.0802203    29.862963    56972.251   0.62907818    31.580111 
11180000   0.99935812   0.98889628    29.855014    56980.273   0.62898961    31.427212 
11182000   0.99627557   0.98534176    29.859393    56977.431   0.62902099    31.425862 
11184000     1.005357    0.9689259    29.866771     56978.45   0.62900973     31.40717 
11186000    1.0001277   0.91039166    29.863655     56986.67   0.62891901    31.311205 
11188000    1.0058583      1.01982    29.853767      56994.1   0.62883702    31.475523 
11190000     1.004748   0.99033424    29.857978    57002.739   0.62874172    31.433084 
11192000    1.0020552    1.0176202    29.856041    56994.594   0.62883157    31.474313 
11194000    1.0011475   0.99249103    29.853364    56986.845   0.62891708     31.43146 
11196000   0.99617124   0.98317256    29.849639    56980.344   0.62898883     31.41274 
11198000   0.99924559    1.0105904    29.848887    56969.071   0.62911329     31.45526 
11200000    0.9991712     1.026276    29.848842    56955.541   0.62926275     31.47976 
11202000    0.9987853    1.0402879    29.846233    56954.332    0.6292761    31.499383 
11204000   0.99177387   0.93467778     29.84546    56956.149   0.62925602    31.330829 
11206000   0.99563527   0.99269859    29.855526    56953.224   0.62928834     31.43302 
11208000   0.99888872   0.97691204     29.84836    56948.145   0.62934447    31.400629 
11210000    0.9983361   0.95046615    29.844466    56935.521   0.62948401    31.354379 
11212000   0.99388169   0.97919735     29.84706    56928.482   0.62956184    31.402423 
11214000   0.99641688   0.93369052     29.84375    56930.118   0.62954375    31.326873 
11216000   0.99420368    1.0744414    29.841036    56923.541   0.62961649    31.547538 
11218000   0.98883206   0.93873645    29.847145    56915.609   0.62970423    31.337903 
11220000   0.99749248    1.0393458    29.837147    56914.017   0.62972185    31.487631 
11222000   0.99158728    0.9618798    29.841549    56910.984   0.62975541    31.368936 
11224000   0.99740867    1.0156897    29.847618    56913.506   0.62972751    31.460521 
11226000   0.99993171     1.045313     29.84904    56924.676   0.62960394    31.509311 
11228000    1.0006247    1.0154359    29.846372    56933.477    0.6295066    31.459438 
11230000   0.99816792    0.9132896    29.855689    56937.318   0.62946414    31.306589 
11232000    0.9971611    1.0063535    29.844179    56936.905   0.62946871    31.442913 
11234000    0.9929352    1.0449584    29.845122    56933.167   0.62951004    31.505077 
11236000   0.99536582    1.0356931    29.847919    56935.702     0.629482    31.493229 
11238000   0.99568662    1.0636312    29.851289    56942.937   0.62940203    31.541196 
11240000    1.0028116     1.024059    29.849468     56939.52    0.6294398    31.476405 
11242000    1.0007835   0.99630398    29.848716    56943.667   0.62939396    31.431673 
11244000    1.0050006    1.0495594    29.850982    56943.632   0.62939434    31.518553 
11246000   0.99916009   0.95571524    29.849343     56934.41   0.62949629    31.367565 
11248000     1.004099     1.036614    29.851684    56937.875   0.62945799     31.49852 
11250000    0.9974769     1.063341    29.855983    56942.822   0.62940329    31.545426 
11252000   0.99966402   0.99043099     29.85717     56948.95   0.62933558    31.430943 
11254000    1.0031669     1.024844     29.85513    56943.789   0.62939261    31.483436 
11256000   0.99623613   0.92746574    29.854189    56949.146    0.6293334    31.327916 
11258000    1.0043927   0.99767408    29.860228    56960.247   0.62921075    31.445824 
11260000    0.9983971    1.0042235    29.853589    56963.373   0.62917622    31.449682 
11262000    1.0039538    0.9910137    29.862814    56962.428   0.62918666    31.437885 
11264000    1.0017376    1.0084967    29.856157    56948.419   0.62934144     31.45862 
11266000   0.99917395   0.99175667    29.852296    56943.895   0.62939144    31.428035 
11268000    1.0016577   0.99726192    29.854097    56931.316    0.6295305    31.438233 
11270000   0.99514329    1.0022668     29.84469     56930.18   0.62954306    31.436745 
11272000    1.0003129    1.0037229    29.841113    56920.062   0.62965497    31.435196 
11274000   0.99578945   0.98215785    29.838247    56913.778   0.62972449     31.39791 
11276000   0.99661407   0.94081372    29.854007    56906.823   0.62980146    31.347833 
11278000   0.99897264    1.0077922    29.840274    56899.881    0.6298783    31.440254 
11280000   0.99520227    1.0196951    29.847342    56899.028   0.62988774    31.466194 
11282000   0.99713887    1.0068965    29.845076    56895.304   0.62992896    31.443504 
11284000   0.99475675   0.98605222    29.849678    56891.152   0.62997494    31.414903 
11286000    1.0025648    1.0001394    29.853035    56899.638   0.62988099    31.440857 
11288000    1.0011262     1.034114    29.844832    56904.844   0.62982336    31.486743 
11290000    1.0008628    1.0204647    29.845736    56917.608   0.62968212    31.466339 
11292000    1.0018003   0.97864361    29.854094    56911.851   0.62974582    31.408124 
11294000    0.9994048   0.93835208    29.844502    56913.006   0.62973303    31.334581 
11296000    1.0011477   0.99134438     29.85587    56912.352   0.62974028    31.430081 
11298000    1.0015997    1.0130027    29.855311    56913.771   0.62972457    31.463955 
11300000    1.0028357    1.0217185    29.861417    56931.546   0.62952796    31.484408 
11302000   0.99944535   0.97200237    29.854085     56943.39   0.62939702    31.398424 
11304000    1.0041351   0.97063034    29.858401    56935.661   0.62948247     31.40035 
11306000   0.99863246   0.98324252    29.852463    56934.024   0.62950056    31.414403 
11308000   0.99163536    1.0334822    29.849536    56935.227   0.62948726    31.491321 
11310000   0.99790402   0.98173919    29.851193    56931.133   0.62953252    31.410667 
11312000   0.99926451    1.0393134    29.847996    56913.118    0.6297318    31.498403 
11314000   0.99797407    1.0224779    29.845789    56916.212   0.62969756    31.469549 
11316000   0.99614838    1.0996045    29.840814    56914.771    0.6297135    31.587012 
11318000   0.99717599    1.0445258    29.844365    56899.859   0.62987853    31.502662 
11320000   0.99601099   0.93672791    29.845484    56903.694   0.62983608    31.332741 
11322000   0.99416886   0.97850777    29.843518    56906.278   0.62980749     31.39718 
11324000   0.99270859   0.94781616    29.837038    56894.934   0.62993306    31.341667 
11326000   0.99179909    1.0266497    29.829524    56878.673   0.63011316    31.458834 
11328000   0.99359633   0.99868089    29.833825    56870.655     0.630202    31.418525 
11330000   0.98847188   0.94918247     29.83923    56862.427   0.63029318    31.345168 
11332000   0.99167889   0.96866616     29.83107    56854.062   0.63038592    31.367694 
11334000   0.99253554   0.97780241    29.828301    56846.074    0.6304745    31.379201 
11336000   0.99093331   0.97878367    29.832315    56838.884   0.63055425    31.384574 
11338000    0.9892351   0.97069368    29.830228    56832.931    0.6306203    31.369496 
11340000   0.98982062   0.97988869    29.837346    56835.712   0.63058944    31.391271 
11342000    0.9891669    1.0569165    29.828595    56835.456   0.63059228    31.504664 
11344000   0.98851674    1.0327577    29.826401    56831.647   0.63063454    31.464049 
11346000    0.9856543    1.0357178    29.824851    56834.256    0.6306056    31.467269 
11348000   0.98888303   0.97987081    29.821367    56830.843   0.63064347     31.37513 
11350000   0.99128791   0.98593196    29.831864    56833.565   0.63061326    31.395313 
11352000   0.99284567   0.93939585    29.829853    56829.418   0.63065928    31.319399 
11354000   0.99328318   0.99631777    29.841343      56834.4     0.630604    31.421285 
11356000   0.99426474    1.0486759    29.848452    56841.463   0.63052564    31.511629 
11358000    1.0018962   0.99382744    29.842562     56841.53    0.6305249    31.418753 
11360000    0.9986622     1.028866    29.843559    56859.843   0.63032183    31.475846 
11362000   0.99462808   0.99990376    29.839214    56868.047    0.6302309    31.425781 
11364000     0.992928   0.99938173     29.83613    56863.988   0.63027587    31.421756 
11366000   0.99352632    1.0267781    29.840601    56869.264   0.63021741    31.469845 
11368000   0.99205509   0.98439298    29.842803    56874.909   0.63015486    31.404947 
11370000   0.99616361   0.99338371    29.840138    56862.659   0.63029061     31.41621 
11372000   0.99607167    1.0213218    29.846497    56857.316   0.63034984    31.466743 
11374000   0.99261018   0.99452531    29.844309    56857.477   0.63034805    31.422049 
11376000   0.99848299    1.0972825    29.846798     56850.79    0.6304222     31.58735 
11378000    1.0027599   0.97571341    29.856207    56860.644   0.63031295    31.404189 
11380000   0.99775936    1.0350304    29.848327    56876.993   0.63013177    31.490889 
11382000     0.993682   0.97996286      29.8448    56879.028   0.63010922    31.400027 
11384000   0.99912399   0.97473507    29.844842    56876.888   0.63013293    31.391714 
11386000   0.98977463   0.97954954    29.835687    56880.726   0.63009041    31.390304 
11388000   0.98989284   0.94671704    29.833047    56877.589   0.63012516    31.335474 
11390000   0.99546207    1.0527361    29.835931    56869.718   0.63021238    31.506378 
11392000   0.99959743    1.0019127    29.853154    56871.635   0.63019113    31.443009 
11394000   0.99825926   0.95723812    29.852028    56874.772   0.63015637    31.371077 
11396000    1.0024108    1.0065339    29.856314    56880.388   0.63009415    31.453748 
11398000     1.006958   0.99517272    29.857102     56885.76   0.63003465    31.436655 
11400000   0.99685232   0.96543218    29.851874    56878.945   0.63011014    31.384038 
11402000    1.0011846   0.96998661    29.853498    56886.458   0.63002692    31.393093 
11404000   0.99807514    1.0049984    29.854232    56903.897   0.62983384    31.449888 
11406000   0.99882558    1.0285337    29.849182    56906.803   0.62980168     31.48229 
11408000    1.0010422    1.0371077    29.859765    56908.941   0.62977802    31.506548 
11410000   0.99894954    0.9957251    29.861159    56914.557   0.62971587    31.442389 
11412000    1.0052875    1.0464917    29.866002    56926.087   0.62958833    31.528186 
11414000    1.0014869    1.0193562    29.862987    56942.453   0.62940738    31.482536 
11416000   0.99952502   0.97276595    29.860678    56940.476   0.62942923    31.406151 
11418000    1.0057994   0.92288376    29.860322     56942.05   0.62941183    31.326585 
11420000    1.0001406   0.98658321    29.857608    56937.465   0.62946252    31.424951 
11422000    1.0003448    1.0041213    29.865477    56934.278   0.62949775    31.460592 
11424000    1.0098036   0.98694123    29.874167    56935.597   0.62948317    31.442027 
11426000    1.0017556   0.98225114    29.863044    56940.681   0.62942697    31.423593 
11428000   0.99995742   0.99102864    29.861551    56949.875   0.62932535    31.436298 
11430000    1.0015307    1.0339367    29.860824    56942.101   0.62941127    31.503529 
11432000    1.0024163   0.96253362    29.856953    56942.519   0.62940665    31.386225 
11434000    1.0018109   0.98839659    29.858169    56937.902   0.62945769    31.428404 
11436000   0.99892752   0.97232103    29.858791    56946.432    0.6293634    31.403718 
11438000    1.0081952   0.97108273    29.862833    56953.744    0.6292826    31.405992 
11440000   0.99880493    1.0060102    29.862601    56951.503   0.62930735    31.461201 
11442000    1.0019695    0.9604621    29.860229     56947.88    0.6293474    31.386353 
11444000   0.99759159   0.99163648     29.86187    56948.505   0.62934049    31.437545 
11446000    1.0092064   0.99837131    29.864336    56951.622   0.62930605      31.4508 
11448000    1.0057991    1.0261216    29.861601    56952.973   0.62929112    31.492201 
11450000    1.0018554      1.05082    29.861543    56954.849   0.62927038    31.531445 
11452000    1.0037231    1.0377393    29.863154    56963.381   0.62917614    31.512516 
11454000    1.0012974   0.96554546    29.864336    56965.666    0.6291509    31.399017 
11456000    1.0036737    1.0146174    29.860441    56974.269    0.6290559    31.473362 
11458000     1.000986   0.91070996    29.861925    56971.974   0.62908124    31.309607 
11460000    0.9989347    1.0208611    29.860817     56966.64   0.62914015    31.483446 
11462000    1.0018158   0.96486389    29.862093    56968.524   0.62911933    31.395767 
11464000    1.0074234    1.0527721    29.863843    56972.161   0.62907917    31.537356 
11466000    1.0047013    1.0315154    29.867323    56995.304   0.62882373    31.507712 
11468000    1.0051232   0.99494284    29.862663    56987.903    0.6289054    31.444686 
11470000    1.0062979   0.98119625    29.867741    56998.139   0.62879246    31.428186 
11472000    1.0112208     1.032775      29.8701    57007.823   0.62868564    31.512853 
11474000    1.0093597    1.0128691    29.872695    57017.177   0.62858251    31.484049 
11476000    1.0073708    1.0021042    29.873581    57019.239   0.62855977    31.467868 
11478000    1.0072193   0.98214597    29.867397     57027.35   0.62847037    31.430153 
11480000    1.0041495   0.91812946    29.867648    57017.705   0.62857668    31.328297 
11482000    1.0028839    1.0260333    29.861175    57010.832   0.62865246     31.49329 
11484000     1.001485   0.91236881    29.864432    57004.059   0.62872716    31.315569 
11486000    1.0001689   0.99611019    29.858276    56990.681   0.62887474    31.442232 
11488000    1.0020127      1.01978    29.854026    56984.675   0.62894102     31.47545 
11490000   0.99930409    1.0279036     29.86243    56981.464   0.62897647    31.496678 
11492000    1.0067459   0.99244691    29.867999    56989.141   0.62889174    31.446087 
11494000    0.9978034   0.95926696    29.860542    56985.662   0.62893014    31.385778 
11496000    1.0069499   0.98033128     29.86107    56981.596   0.62897501    31.419688 
11498000    1.0015583   0.99455752    29.860714    56983.575   0.62895317    31.442004 
11500000     1.004538    1.0129643    29.861835    56978.165   0.62901288    31.472238 
11502000    1.0071772    1.0101784    29.862222    56976.488    0.6290314    31.468149 
11504000    1.0036625   0.96295951    29.860668    56973.805   0.62906102    31.391457 
11506000   0.99903845   0.96531364    29.859636    56979.316   0.62900018    31.394315 
11508000   0.99950353    1.0081573    29.857846    56971.143   0.62909042     31.46041 
11510000   0.99645202    1.0690135    29.853802    56965.572   0.62915194    31.552936 
11512000    1.0004561    0.9638393    29.849414    56963.986   0.62916945    31.381337 
11514000   0.99224439    1.0063963    29.847037    56961.931   0.62919215    31.446543 
11516000   0.99326996   0.97870209    29.847313    56950.284   0.62932083    31.402485 
11518000   0.99802656    1.0351006    29.845904    56947.272   0.62935411    31.490607 
11520000   0.99173176   0.99614506     29.84568    56952.368   0.62929781    31.428627 
11522000   0.99894294    1.0112277    29.850394     56950.99   0.62931302     31.45727 
11524000    1.0011305    1.0796625    29.857257    56943.119   0.62940001     31.57264 
11526000   0.99981583    1.0266598    29.849045    56939.439    0.6294407    31.480111 
11528000   0.99736381    1.0316062    29.856122    56932.457   0.62951789    31.494846 
11530000   0.99443761    1.0136859    29.846951    56942.473   0.62940716    31.457492 
11532000   0.99697489    1.0268919    29.848373    56943.564   0.62939509    31.479927 
11534000   0.99297311    0.9754577     29.84913    56936.783   0.62947006    31.398779 
11536000   0.99395427    1.0318669     29.84748    56930.872   0.62953542    31.486573 
11538000   0.99821992   0.98266158    29.848354    56925.027   0.62960005    31.409125 
11540000   0.99813361   0.96473393    29.852586    56932.016   0.62952276     31.38507 
11542000   0.99932716    1.0671985    29.853482    56931.754   0.62952566    31.548724 
11544000    1.0036311   0.99056118    29.860268    56941.821   0.62941437     31.43405 
11546000    1.0074123    1.0377154    29.866202     56951.56   0.62930673    31.515184 
11548000   0.99843332   0.98264765    29.856023    56964.584   0.62916284    31.417857 
11550000     1.003798   0.97509714    29.862584    56959.066    0.6292238    31.412267 
11552000    1.0010009   0.96510527    29.856725     56972.05    0.6290804    31.390878 
11554000    1.0008408    1.0055626    29.853303    56972.314   0.62907749    31.451775 
11556000   0.99990268    1.0638303    29.848935    56957.366   0.62924258    31.539587 
11558000   0.99557164   0.98675693    29.850657    56954.422   0.62927511    31.418742 
11560000   0.99754335    1.0172447    29.848364    56949.824   0.62932591    31.464768 
11562000   0.99785401    1.0138961     29.84187    56945.113   0.62937797    31.452819 
11564000   0.99812068    1.0064887    29.842605     56948.06   0.62934541    31.441868 
11566000   0.99614891   0.97266994      29.8471    56953.221   0.62928838    31.392766 
11568000    0.9956655    0.9894157     29.84815    56952.024    0.6293016    31.420394 
11570000   0.98949465   0.91455273    29.841015    56945.158   0.62937748    31.294122 
11572000    0.9981311   0.95064167    29.849286    56949.191   0.62933291     31.35984 
11574000   0.99737366    1.0255319    29.843676    56940.094   0.62943345    31.472969 
11576000   0.99424606   0.99911832    29.840808    56924.895   0.62960152    31.427714 
11578000   0.99207679    1.0474285    29.837437    56915.882   0.62970121     31.50081 
11580000   0.99659818    1.0438107    29.849583     56920.51   0.62965002    31.507347 
11582000   0.99486758   0.99324112    29.848953    56913.482   0.62972777    31.426208 
11584000    1.0002522   0.97722115    29.859395    56907.673   0.62979205    31.411052 
11586000    1.0068004    1.0131267    29.857844    56917.308   0.62968544    31.466785 
11588000    1.0058204    1.0261391    29.861383    56932.502   0.62951739    31.491424 
11590000    1.0080616     1.053415     29.86555    56948.047   0.62934556    31.539376 
11592000    1.0002812   0.99704774    29.853746    56948.228   0.62934355    31.438012 
11594000      1.00273    1.0244358    29.861371    56962.321   0.62918784    31.489558 
11596000    1.0044787    1.0396567    29.862438    56969.034    0.6291137    31.515012 
11598000    1.0026572    1.0208599    29.856472    56977.473   0.62902053    31.479408 
11600000   0.99953078   0.99784109    29.862995    56974.335   0.62905517    31.449249 
11602000    1.0021344    1.0437525     29.86255    56969.376   0.62910993    31.521644 
11604000    0.9997516   0.96351564    29.863785    56962.227   0.62918889    31.395147 
11606000    1.0055115    1.1115266    29.861212    56964.689   0.62916169    31.627891 
11608000    1.0037187     1.033961    29.859408    56981.058   0.62898095    31.503275 
11610000    1.0029509   0.96668521    29.859952    56981.443    0.6289767    31.396869 
11612000   0.99589617   0.99233749    29.856784    56976.794   0.62902803    31.434357 
11614000    1.0009944    1.0013699    29.856613    56967.711   0.62912832    31.448291 
11616000   0.99997238    1.0507231    29.855195    56969.854   0.62910465    31.525383 
11618000    1.0008042   0.96227513    29.851332    56971.552   0.62908589    31.380973 
11620000   0.99697978   0.97440572    29.855096    56972.883    0.6290712    31.404056 
11622000   0.99992591   0.97676262    29.850855    56967.998   0.62912515    31.403428 
11624000   0.99659046    1.0034589    29.848527    56956.683   0.62925012    31.443217 
11626000   0.99924301    1.0418456    29.852475    56956.192   0.62925555    31.508155 
11628000   0.99531841    1.0242139    29.851386    56934.171   0.62949893    31.478416 
11630000   0.99878378    1.0017428    29.850429    56931.459   0.62952893    31.441686 
11632000    0.9988207     1.076255    29.855103    56925.632   0.62959336    31.564547 
11634000   0.99910946   0.97687896    29.854344    56938.162   0.62945481    31.406288 
11636000   0.99729601    1.0534863    29.845841    56937.981   0.62945681    31.519484 
11638000   0.99635807   0.97342918    29.846653    56922.455    0.6296285     31.39269 
11640000    1.0004769    1.0330232    29.846845    56921.568   0.62963831    31.487506 
11642000   0.99578522   0.99031107    29.853212    56923.287   0.62961929    31.426085 
11644000   0.99858686    0.9476017    29.857341    56914.481   0.62971672    31.362147 
11646000     1.003191    1.0225867    29.852419    56927.052   0.62957766    31.476661 
11648000    1.0007793    1.0463857    29.850538     56928.68   0.62955965    31.512629 
11650000   0.99906669    1.0682843    29.850271    56926.581   0.62958286    31.547084 
11652000   0.99808365    1.0331449    29.852059    56930.003   0.62954502    31.493157 
11654000   0.99588814    1.0341706    29.844691    56931.936   0.62952365    31.487474 
11656000   0.99478973   0.99228726    29.842892    56930.942   0.62953464    31.419116 
11658000   0.99236723    1.0546343    29.841183    56919.898   0.62965679    31.516119 
11660000   0.99128911   0.95889457    29.839182    56922.417   0.62962892    31.362134 
11662000   0.99518092    1.0073523    29.846587    56930.445   0.62954014    31.446727 
11664000   0.99903009    1.0091025    29.846307    56938.072   0.62945581    31.449442 
11666000   0.99336775   0.96929441    29.848459    56936.438   0.62947387    31.388307 
11668000   0.99571361    0.9646726    29.847447    56929.293   0.62955288    31.379761 
11670000   0.99955959   0.94586843    29.854257    56932.618    0.6295161     31.35679 
11672000   0.99510996    1.0184009    29.851222    56934.038    0.6295004    31.469015 
11674000    0.9995098    1.0342611    29.854833    56940.187   0.62943243    31.497998 
11676000    1.0033229    1.0123484    29.857726    56956.635   0.62925066    31.466542 
11678000    1.0038062    1.0290942    29.861018    56954.911    0.6292697    31.496397 
11680000   0.99483755    0.9564337    29.848517    56960.065   0.62921277    31.368565 
11682000    1.0022177    1.0696761    29.845706    56959.938   0.62921417    31.545725 
11684000   0.99421031    1.0178032    29.839854    56947.511   0.62935147    31.457079 
11686000   0.99636145   0.97327394    29.848357    56942.025   0.62941211     31.39468 
11688000   0.99519487   0.96442526    29.847116    56931.551    0.6295279    31.379098 
11690000   0.99467206    0.9665139    29.844332    56919.438   0.62966187    31.379304 
11692000   0.99526645   0.90437838    29.842161     56915.77   0.62970245     31.27836 
11694000   0.99905351    1.0264835    29.843593    56912.717   0.62973623    31.473615 
11696000    1.0043933    1.0087754    29.846872    56909.719    0.6297694     31.44869 
11698000   0.99613857   0.95666126    29.844474    56909.067   0.62977663    31.363523 
11700000   0.99890359   0.96691376    29.852536    56904.993   0.62982171    31.387754 
11702000   0.99921479    1.0470788    29.850101    56909.942   0.62976694    31.512746 
11704000   0.99824234    1.0004864    29.850223    56907.845   0.62979015    31.438826 
11706000   0.99584904    1.0213295    29.846581    56909.786   0.62976866    31.468334 
11708000   0.99814737    1.0105365    29.853111    56910.991   0.62975533    31.457761 
11710000   0.99509212     1.001439     29.85032    56916.963   0.62968926     31.44069 
11712000   0.99776681   0.97234676    29.851312    56917.141   0.62968729    31.395486 
11714000    1.0042313   0.93831115    29.857981    56925.041    0.6295999     31.34831 
11716000    1.0004038    1.0194489    29.853384    56924.485   0.62960605    31.472569 
11718000   0.99611435   0.94192747    29.850032    56923.986   0.62961157    31.346078 
11720000    1.0037964    1.0079588    29.855425     56922.36   0.62962955      31.4563 
11722000   0.99853353   0.99809813    29.854144    56921.346   0.62964077     31.43933 
11724000   0.99938227   0.97560786    29.856622    56915.276   0.62970791    31.405924 
11726000   0.99695705    1.0539111    29.852672    56923.491   0.62961704    31.526564 
11728000    1.0016392    1.0047196    29.857674    56930.811   0.62953608    31.453642 
11730000    1.0057394   0.95875864    29.862029    56931.418   0.62952937    31.385006 
11732000     1.002377    1.0280115    29.856915    56940.302   0.62943116    31.490153 
11734000    1.0048603   0.99318399     29.85123     56953.25   0.62928806    31.429497 
11736000    1.0006924     1.026797    29.851993    56948.699   0.62933834    31.483543 
11738000    1.0003735   0.97993227    29.857399    56949.386   0.62933075    31.414501 
11740000    1.0074345   0.96494792    29.862846    56948.014   0.62934591    31.396101 
11742000   0.99749248   0.98968664    29.850204    56938.652   0.62944939    31.422509 
11744000   0.99412978   0.95633186    29.853345    56940.943   0.62942407    31.372721 
11746000   0.99499052   0.95194963     29.85201    56933.483   0.62950654    31.364225 
11748000   0.99373078    1.0183406    29.844923    56926.338   0.62958555      31.4624 
11750000    1.0022246    0.9806579    29.842923    56919.135   0.62966522     31.40035 
11752000   0.99835134    1.0674938     29.85333    56923.889   0.62961264    31.548807 
11754000   0.99749089    1.0296785    29.849063    56920.096   0.62965459     31.48437 
11756000    1.0007692   0.96368342    29.852839    56916.217   0.62969751     31.38323 
11758000    1.0007963   0.98920564     29.84948    56920.832   0.62964645     31.42053 
11760000   0.99959811    1.0302537    29.855821     56926.49   0.62958387    31.492225 
11762000    1.0026724   0.92781703    29.858015     56931.31   0.62953056    31.331838 
11764000    1.0012214    0.9990588    29.852283    56940.104   0.62943334    31.439519 
11766000   0.99349427   0.92023534    29.850592    56933.527   0.62950605    31.312429 
11768000    1.0028753   0.97191829    29.844009    56928.828   0.62955801    31.387819 
11770000   0.99844638    1.0016255    29.849358    56932.625   0.62951602    31.440462 
11772000    1.0027483   0.99816475    29.850585    56933.971   0.62950115    31.436229 
11774000   0.99884777    1.0505775    29.856238     56923.58   0.62961606    31.524838 
11776000   0.99920698   0.98088984    29.858696    56932.983   0.62951207    31.416871 
11778000    1.0012574    1.0624646    29.864583    56943.283    0.6293982    31.552648 
11780000    1.0038995    1.0045323    29.858455    56955.223   0.62926625     31.45481 
11782000     1.001247   0.95585931    29.862349    56957.663    0.6292393     31.38142 
11784000    1.0056439    1.0265683    29.872822    56959.865   0.62921498    31.504328 
11786000    1.0040179   0.99530608    29.865341    56962.406    0.6291869    31.447234 
11788000    1.0079093    1.0127569    29.865891    56960.643   0.62920638    31.475469 
11790000    1.0070762    1.0045899    29.865018    56973.471    0.6290647    31.461976 
11792000   0.99933559    1.0526729    29.866323    56975.232   0.62904527    31.539768 
11794000    1.0005385     1.051387    29.853852    56982.366   0.62896652    31.525463 
11796000   0.99987367   0.94243713    29.857319    56974.791   0.62905014     31.35551 
11798000    1.0048036   0.98377141    29.859326    56968.344   0.62912133    31.423049 
11800000    1.0036613    1.0248024    29.867148    56962.935   0.62918107    31.495936 
11802000   0.99769878    1.0234238    29.858495    56957.725   0.62923861    31.484943 
11804000    1.0010907    1.0121877    29.856476    56958.808   0.62922665    31.465097 
11806000    1.0004837   0.92798639     29.86305    56959.338    0.6292208    31.337868 
11808000    1.0102212   0.94708049    29.859143    56956.651   0.62925048    31.364236 
11810000    1.0060394    1.0037487    29.860051    56965.238   0.62915562    31.455441 
11812000    1.0028502    0.9354218     29.86107    56953.632   0.62928384    31.347557 
11814000   0.99010377   0.98317032    29.854385    56953.308   0.62928742     31.41674 
11816000     0.997277    1.0465485    29.848947    56956.974   0.62924691    31.512123 
11818000   0.99910345    1.0160337    29.845822    56954.405   0.62927529    31.460432 
11820000    1.0053513   0.95494759    29.859066    56950.602   0.62931732    31.376501 
11822000    1.0023491   0.98849429    29.853829     56950.27   0.62932099    31.424561 
11824000    1.0037287    1.0348571    29.859426    56964.626   0.62916238    31.504243 
11826000   0.99946347    1.0252561    29.861185    56961.768   0.62919395    31.490661 
11828000    1.0045931    1.0256419    29.861554    56959.484   0.62921918    31.491577 
11830000     1.002842    1.0543842    29.865174    56957.995   0.62923563    31.540833 
11832000   0.99727128    1.0487567    29.856063    56957.418   0.62924201    31.522762 
11834000   0.99996598    1.0117815    29.859825    56952.629   0.62929492    31.467626 
11836000    1.0023828   0.99511104    29.856968    56946.223   0.62936571    31.438101 
11838000    1.0025802   0.95863202    29.864739     56951.68   0.62930541    31.388057 
11840000    1.0053976   0.92535307    29.868436    56954.815   0.62927076    31.338953 
11842000    1.0000186    1.0094214    29.856532    56952.148   0.62930024     31.46057 
11844000    1.0028878    1.0002263    29.853884    56953.413   0.62928625    31.443345 
11846000   0.99936512    1.0201808    29.857571    56958.014   0.62923543    31.478873 
11848000    0.9976843    1.0029948    29.850553    56959.708    0.6292167    31.444591 
11850000   0.99705861   0.99225223    29.854129    56965.383   0.62915403    31.431251 
11852000    1.0019334    1.0235556    29.861445     56958.18   0.62923359    31.488115 
11854000    1.0019306   0.96739579    29.859876    56957.049   0.62924609    31.397265 
11856000     1.001711   0.97476477    29.855859    56952.323    0.6292983     31.40483 
11858000   0.99948459    1.0272079    29.848736    56948.426   0.62934136    31.480932 
11860000    0.9950009    1.0462925    29.844791    56931.551   0.62952791    31.506818 
11862000   0.99055353    1.0522108    29.849716    56914.346   0.62971821    31.520639 
11864000   0.99724572   0.96989911    29.852809    56911.806   0.62974631    31.392951 
11866000   0.99654886    1.0118107    29.841345    56919.948   0.62965624     31.44827 
11868000   0.99532917   0.99949617    29.842535    56908.594   0.62978185    31.429587 
11870000   0.99172673   0.97669313    29.845245    56897.154   0.62990848    31.395777 
11872000   0.99657441   0.94927723    29.850394    56888.408   0.63000532     31.35717 
11874000   0.99358129   0.97102472    29.843768    56880.962   0.63008779    31.384862 
11876000   0.99298355    1.0608166    29.839589    56873.024   0.63017574    31.522956 
11878000    0.9953764   0.98542606    29.852924    56875.471   0.63014863    31.416724 
11880000    1.0011862    1.0054146    29.852659    56872.166   0.63018524    31.448087 
11882000   0.99764442   0.98939967    29.852746    56884.374      0.63005    31.423097 
11884000    1.0007256    0.9790068    29.849798    56894.613   0.62993662    31.403933 
11886000   0.99450783    1.0559817    29.839425    56898.871   0.62988948     31.51588 
11888000    1.0015668    1.0374264    29.848193    56903.432   0.62983899    31.495323 
11890000    1.0038996    1.0378831    29.856335    56920.553   0.62964954    31.504686 
11892000   0.99869427    1.0096473    29.861189    56928.267   0.62956422    31.464913 
11894000    1.0000269   0.90080878    29.858387    56920.378   0.62965148    31.289034 
11896000   0.99773409    1.0042741    29.854517    56919.206   0.62966444    31.449452 
11898000    1.0055137    1.0056081    29.853314    56925.941   0.62958994    31.450557 
11900000   0.99425085   0.96995758    29.853678    56926.102   0.62958816      31.3943 
11902000   0.99328097    1.0233118    29.849409    56918.118   0.62967648    31.474548 
11904000    1.0001177   0.95743298    29.863653     56928.42   0.62956253    31.384444 
11906000   0.99745586    1.0217062    29.865766    56928.825   0.62955805     31.48866 
11908000    1.0038307    0.9196059    29.860952    56941.585   0.62941697    31.321996 
11910000    1.0026591    1.0426107    29.860503    56947.044   0.62935663    31.517132 
11912000   0.99927011   0.96989918    29.861015    56940.671   0.62942707    31.401939 
11914000   0.99804194    1.0026339    29.857089    56938.038   0.62945618    31.449946 
11916000    1.0034417   0.96511055    29.861127    56943.326   0.62939773    31.394514 
11918000    1.0044222    1.0011756    29.864355    56952.805   0.62929298    31.455308 
11920000     1.006568    1.0733746    29.864003    56954.456   0.62927473    31.569736 
11922000    1.0040054    1.0490735    29.855681    56966.047   0.62914669    31.523135 
11924000    1.0002341    1.0326787     29.85951    56963.891    0.6291705    31.500843 
11926000    1.0087988    1.0014389    29.859501    56968.845   0.62911579    31.451321 
11928000    1.0014726    0.9212229    29.853303    56973.835   0.62906069    31.317745 
11930000    1.0046418    1.0277041    29.857272    56963.807   0.62917143    31.490697 
11932000   0.99364006    1.0123738     29.84549    56949.122   0.62933367    31.454134 
11934000   0.99342764   0.97717196    29.847087    56926.306   0.62958591    31.399174 
11936000    1.0024745   0.98206891    29.858728    56928.648   0.62956001    31.418657 
11938000   0.99876548    1.0529821    29.855034    56939.817   0.62943652    31.527931 
11940000    1.0041599     1.017912    29.855645    56934.579   0.62949442    31.472676 
11942000   0.99636184    1.0152708    29.839914    56942.283   0.62940926    31.452967 
11944000   0.99504366   0.94359045    29.849578    56942.584   0.62940593    31.348755 
11946000   0.99709759    1.0538682    29.844733    56947.054   0.62935652     31.51925 
11948000    1.0023421    1.0242423    29.850845    56956.047   0.62925715    31.478545 
11950000   0.99976262   0.99394551    29.849182    56948.947   0.62933561    31.428539 
11952000   0.99642796    1.0040083    29.836699    56944.612   0.62938351    31.431924 
11954000   0.99193083   0.95988846    29.832579    56934.264   0.62949791    31.357427 
11956000   0.99255009   0.97702945    29.836139    56929.048   0.62955558    31.388074 
11958000   0.99660354     1.042143    29.847547    56933.436   0.62950707    31.503038 
11960000   0.99468787    1.0072116    29.850543    56939.082   0.62944464    31.450702 
11962000    1.0031752   0.98461244     29.85642    56948.106    0.6293449    31.420924 
11964000   0.99839307    0.9071063    29.849569    56942.467   0.62940722    31.290777 
11966000   0.99594443   0.98078561    29.846355     56945.83   0.62937005    31.404716 
11968000   0.99422092    1.0204738    29.845739    56951.611   0.62930616    31.467325 
11970000   0.99728311   0.95874118    29.857976    56949.178   0.62933305      31.3814 
11972000    1.0020347    1.0366388    29.853349    56953.297   0.62928754     31.50067 
11974000    1.0042977   0.98196645    29.860405     56958.03   0.62923524    31.420976 
11976000    1.0027453    1.0146015    29.850757    56969.597   0.62910749     31.46352 
11978000     1.003702    1.0327309    29.856176    56977.606   0.62901906    31.497987 
11980000    1.0013777    1.0434187    29.861969    56978.613   0.62900794    31.520801 
11982000    1.0018396    0.9557448    29.855227    56966.894   0.62913734    31.374362 
11984000   0.99729548   0.97107367    29.850419    56957.335   0.62924293     31.39366 
11986000    1.0050848    0.9749568    29.850936    56947.238   0.62935449    31.400074 
11988000    0.9949624    1.0311942    29.848099    56945.804   0.62937034    31.486553 
11990000   0.99586081   0.98062052     29.85816    56940.414   0.62942991     31.41611 
11992000    1.0031529   0.94169187    29.851826    56940.369   0.62943042    31.347927 
11994000   0.99762504    1.0208518    29.848565     56941.76   0.62941503    31.470471 
11996000   0.99857233   0.95411777    29.851444    56932.032   0.62952259    31.367065 
11998000    1.0015532   0.99400392    29.852177    56924.603   0.62960475    31.430951 
12000000   0.99897656    1.0580188    29.848999    56921.823   0.62963549    31.529366 
12002000   0.99625862   0.99038082    29.856535     56927.52   0.62957249    31.429636 
12004000   0.99787329   0.94658393    29.856722    56923.314     0.629619    31.360145 
12006000    1.0014291    1.0065443    29.854831    56922.061   0.62963286    31.453452 
12008000    1.0038056    1.0658557    29.862854    56919.696   0.62965902    31.555605 
12010000    1.0052795    1.0013255    29.859383    56926.921    0.6295791    31.449851 
12012000    1.0048851   0.99520936     29.85811    56945.611   0.62937247    31.439383 
12014000    1.0023648   0.99945431    29.861852    56961.349   0.62919858    31.450309 
12016000   0.99971993   0.97897753    29.856535     56966.49    0.6291418    31.412588 
12018000    1.0047667   0.93499557    29.869092    56980.895   0.62898275    31.355612 
12020000     1.010059   0.96997482    29.866275    56983.959   0.62894893    31.408491 
12022000    1.0027848    1.0038957    29.869258    56985.141   0.62893588    31.465439 
12024000    1.0025019    1.0041872    29.864307    56988.433   0.62889955    31.461044 
12026000    1.0043982    1.0057931    29.857983    56993.517   0.62884345    31.457417 
12028000    1.0022051   0.98892389    29.864648    56997.594   0.62879848    31.437368 
12030000    1.0025658    0.9859559    29.856267    56987.721   0.62890741    31.423995 
12032000    1.0023345   0.88235006    29.853573    56985.376   0.62893329    31.256504 
12034000   0.99730972    1.0299881    29.852997    56978.397   0.62901032    31.490471 
12036000   0.99825275    1.0594271    29.848359    56971.508   0.62908639    31.532432 
12038000   0.99477228    1.0261323    29.850275    56967.958   0.62912559     31.48132 
12040000   0.99775056    1.0344062    29.853163    56967.359   0.62913221    31.497342 
12042000   0.99805954   0.99360082    29.844693    56968.519   0.62911939    31.424045 
12044000   0.99907676   0.97413111    29.845767    56952.689   0.62929426    31.393741 
12046000   0.99100264   0.95987669    29.841584    56942.711   0.62940452    31.366639 
12048000   0.99452808    0.9582121    29.843035    56941.518   0.62941771    31.365414 
12050000   0.99084488   0.97728666     29.84804    56934.209   0.62949851    31.400524 
12052000   0.99507199   0.97832725    29.848358    56905.987   0.62981071    31.401725 
12054000    0.9917945    1.0176237    29.843174    56903.993   0.62983278    31.458878 
12056000   0.99929161   0.99822398     29.84697    56903.045   0.62984328    31.431847 
12058000   0.99674998   0.98516023    29.853889    56899.698   0.62988032    31.417933 
12060000      0.99565   0.93262825    29.848307     56893.29   0.62995126    31.328784 
12062000   0.99551953   0.97246649    29.843663    56907.619   0.62979265    31.387769 
12064000   0.99503101   0.98642203    29.845318    56903.752   0.62983544    31.411476 
12066000    0.9937072   0.99189219    29.844197    56902.437   0.62985001    31.419004 
12068000   0.98663483    1.0290166    29.832768    56895.874   0.62992265    31.466328 
12070000   0.99503029   0.97642134    29.838877    56889.316   0.62999527    31.388764 
12072000   0.99714121    1.0044803    29.854907    56900.722   0.62986899    31.449652 
12074000    1.0023287    1.0970023    29.862374    56912.331   0.62974051    31.604365 
12076000    1.0040487    1.0449663    29.865186     56928.95   0.62955667    31.525031 
12078000    1.0075663   0.98673501    29.861475    56956.114   0.62925642    31.429572 
12080000    1.0018761    1.0197455    29.861539    56960.059   0.62921283    31.482207 
12082000    1.0083432    0.9684816    29.865785    56967.217   0.62913377    31.405174 
12084000    1.0059105   0.96883231    29.867509    56983.275   0.62895648    31.407889 
12086000    1.0031008   0.91154953    29.863391    56992.416    0.6288556    31.312928 
12088000    1.0001768   0.98708427    29.870737    56987.666   0.62890801    31.440258 
12090000    1.0038779    1.0125201    29.872431    56992.373   0.62885607    31.482529 
12092000    1.0049004   0.96771037    29.865039    57000.024   0.62877166    31.404088 
12094000    1.0043284   0.96282538    29.866539    56998.259   0.62879113    31.397771 
12096000    1.0006717   0.93574952    29.863596    56995.822   0.62881802    31.351704 
12098000   0.99879867   0.98354364     29.85373    56986.029   0.62892609    31.417577 
12100000   0.99542273   0.97389325    29.848859    56968.873   0.62911548    31.396895 
12102000    1.0002201    1.0366167    29.845133    56963.257    0.6291775    31.492708 
12104000   0.99630208    1.0186471    29.850669    56946.402   0.62936373    31.469204 
12106000   0.99942722    1.0103686    29.850366    56952.209   0.62929955    31.455911 
12108000   0.99708949    0.9991829    29.853769    56956.668   0.62925029    31.441663 
12110000   0.99666865   0.98889309    29.850102    56952.551   0.62929578    31.421531 
12112000   0.99826689    1.0265646    29.858595    56953.639   0.62928375    31.489918 
12114000    1.0012874    1.0495503    29.860025    56957.802   0.62923777    31.527996 
12116000    1.0031693    1.0527367    29.861146    56962.194   0.62918925    31.534309 
12118000   0.99688655   0.99466964    29.855412     56971.46   0.62908691    31.436545 
12120000    1.0012926   0.91051355    29.857243    56966.077   0.62914636    31.304464 
12122000    1.0058411   0.97578086    29.856872    56964.643    0.6291622    31.407793 
12124000   0.99946381    1.0170174    29.856962    56954.446   0.62927484    31.473135 
12126000    0.9939195    0.9436815    29.848667    56954.525   0.62927397    31.348303 
12128000   0.99678246   0.97809319    29.850081    56955.733   0.62926062    31.404434 
12130000   0.99685718    1.0242066    29.838963    56942.863   0.62940285     31.46623 
12132000    0.9937248   0.96363512     29.83791    56945.022   0.62937898    31.368999 
12134000    0.9952838   0.98754826    29.840101    56934.759   0.62949244    31.408901 
12136000   0.99695251   0.94404924    29.844685    56919.023   0.62966647     31.34397 
12138000    0.9903838   0.98892272     29.83902     56929.53   0.62955025     31.40986 
12140000     0.992312    1.0279232    29.849742    56930.219   0.62954264    31.482552 
12142000    0.9981518    1.0456203    29.839205    56920.963   0.62964501    31.499856 
12144000    0.9988207    1.0207363    29.844986      56928.9   0.62955722    31.466342 
12146000    0.9992117    1.0610035    29.841644     56927.88    0.6295685    31.526931 
12148000    1.0025368   0.97273912    29.851012    56929.508   0.62955049    31.396145 
12150000   0.99827869    1.0490029    29.851095    56934.128   0.62949941    31.517503 
12152000    1.0046409   0.96292781    29.854714    56948.386   0.62934181    31.384769 
12154000    1.0007451   0.99493776    29.855791    56952.452   0.62929687    31.436822 
12156000    1.0028671    0.9543256    29.850235    56959.362   0.62922053    31.366914 
12158000    1.0016981   0.98957983    29.856136    56950.467   0.62931881    31.428598 
12160000   0.99586432   0.93003978    29.851023    56950.618   0.62931714    31.328878 
12162000   0.99279457    1.0172262    29.840966    56945.292     0.629376    31.457211 
12164000   0.99683537    1.0221266    29.850039    56951.592   0.62930638     31.47425 
12166000    0.9973994    1.0155232    29.849508    56946.982   0.62935732    31.463096 
12168000   0.99575722    1.0332689    29.850283     56936.84   0.62946942    31.491775 
12170000   0.99823679    1.0454908    29.854088     56949.13   0.62933358    31.515354 
12172000    1.0013108    1.0688321    29.862761    56949.877   0.62932533    31.561139 
12174000    1.0053379    1.0198187    29.856507    56954.964   0.62926912    31.477147 
12176000    1.0021512    1.0475476    29.857278    56943.841   0.62939204    31.521658 
12178000   0.99611188   0.96289561    29.847359    56940.502   0.62942895    31.377152 
12180000   0.99763124    1.0297927    29.852116    56948.126   0.62934468    31.488409 
12182000   0.99992702   0.97121658    29.853001    56953.416   0.62928622    31.396363 
12184000   0.99802953   0.96363781    29.848763    56963.908   0.62917032    31.380363 
12186000    1.0010671     1.000011    29.851715    56953.254   0.62928801     31.44083 
12188000    1.0003432    1.0146061    29.858438    56953.036   0.62929042     31.47074 
12190000    1.0039321   0.97879832    29.856771    56947.308   0.62935371    31.412015 
12192000   0.99754229    1.0039647     29.86052    56937.235   0.62946505    31.455469 
12194000    1.0061443     1.009508    29.861646    56939.361   0.62944156    31.465461 
12196000     1.005969    1.0176459    29.861285    56942.973   0.62940162    31.478131 
12198000    1.0002166   0.97152239    29.857955    56954.395   0.62927541    31.401829 
12200000   0.99608905   0.96489361    29.853961    56966.182   0.62914521    31.387619 
12202000   0.99630292   0.98938591    29.852388    56955.319    0.6292652    31.424675 
12204000    0.9995331   0.95834502    29.851557    56948.441   0.62934119    31.374332 
12206000    1.0085906   0.99021014    29.855683    56955.802   0.62925986    31.429294 
12208000    1.0009077   0.97554992    29.865256    56952.118   0.62930057    31.415469 
12210000   0.99991998   0.95349208    29.859428    56951.049   0.62931238    31.374561 
12212000    1.0006937   0.93625324    29.857897    56953.294   0.62928757    31.345696 
12214000    1.0067998    0.9413193    29.854932    56950.671   0.62931656    31.350712 
12216000    1.0047722   0.92601822    29.858626    56971.232   0.62908943    31.330623 
12218000    1.0025213   0.98611693    29.848115     56977.61   0.62901901    31.415822 
12220000   0.99529315   0.92477266    29.855374    56966.275   0.62914417    31.325264 
12222000   0.99527167     1.023624    29.847837    56965.134   0.62915677    31.474815 
12224000   0.99816612   0.96152243    29.836349    56948.223   0.62934361    31.364167 
12226000   0.99460502   0.99531412    29.841242    56936.722   0.62947073    31.422434 
12228000   0.99887504    1.0015207    29.852988     56928.04   0.62956672    31.443798 
12230000    1.0045117   0.99465142    29.858547    56923.178    0.6296205     31.43831 
12232000     1.006065     1.064712    29.864321    56933.509   0.62950626    31.555666 
12234000   0.99688427    1.0050819    29.861921    56943.467   0.62939617     31.45882 
12236000     1.003051    1.0369724    29.858173    56934.094   0.62949979    31.505469 
12238000   0.99858423    1.0493702    29.858859     56933.96   0.62950126    31.525846 
12240000   0.99494461    1.0550545    29.855141    56929.634    0.6295491     31.53103 
12242000    1.0003738    1.0589799    29.860561    56933.106   0.62951071    31.542788 
12244000    1.0020477     1.007892    29.858596    56933.925   0.62950165    31.459691 
12246000   0.99926058   0.96094636    29.858705     56941.78   0.62941482    31.385435 
12248000    1.0006882    1.0204608    29.850494    56940.712   0.62942662    31.471748 
12250000    0.9995655   0.95730193    29.855198    56932.885   0.62951316      31.3759 
12252000     1.001787    1.0020968    29.845853    56944.408   0.62938577    31.438035 
12254000   0.99220367     1.098592    29.851154    56933.077   0.62951103    31.596306 
12256000    1.0027678   0.98535036    29.855967    56923.914   0.62961236    31.420978 
12258000   0.99273875    1.0015805    29.848397    56917.625   0.62968193    31.439011 
12260000   0.99419457    1.0114464    29.838531    56912.049   0.62974363    31.444655 
12262000   0.99665993    1.0022306     29.84868    56917.028   0.62968854    31.440309 
12264000   0.99705329    1.0260373    29.850669    56921.041   0.62964415     31.48022 
12266000   0.99858449    1.0756845    29.849019    56912.947   0.62973368    31.557177 
12268000    1.0048456    1.0345008    29.851028    56916.225   0.62969742    31.493882 
12270000   0.99922184    1.0125747    29.852593    56905.522   0.62981585    31.460324 
12272000   0.99829698   0.96327147    29.845414     56915.78   0.62970235    31.375139 
12274000   0.99843431   0.93548687    29.845051    56916.881   0.62969016    31.330682 
12276000    1.0016936    1.0108697    29.856505    56910.505   0.62976071     31.46167 
12278000    1.0048891   0.96673177    29.846752    56916.943   0.62968948    31.382004 
12280000   0.99580401   0.96949405    29.846906    56914.695   0.62971435    31.386483 
12282000   0.99407447   0.96981005    29.841287    56920.582   0.62964922    31.381526 
12284000   0.99718167    1.0094823    29.846913    56918.231   0.62967523    31.450092 
12286000   0.99800888    1.0120067    29.847524    56912.626   0.62973724    31.454554 
12288000   0.99526042   0.98952648    29.847836    56914.559   0.62971585    31.419222 
12290000    1.0006654    1.0025727    29.839802     56919.15   0.62966506    31.432034 
12292000   0.99828202   0.99474436    29.848186    56922.937   0.62962317     31.42809 
12294000   0.99794284   0.98967224    29.852053    56929.226   0.62955362    31.424076 
12296000   0.99848843    1.0540051    29.850402    56931.683   0.62952644    31.524685 
12298000    1.0007962   0.98967052    29.849153    56929.995   0.62954511    31.421194 
12300000    1.0016997    1.0096795    29.844724    56933.693   0.62950421    31.448652 
12302000   0.99844584   0.99402983    29.853235    56943.113   0.62940009    31.432564 
12304000   0.99772989   0.98073331     29.84955    56948.966   0.62933539    31.407913 
12306000   0.99831997   0.96618442    29.846071    56938.123   0.62945524    31.381024 
12308000    0.9984047   0.97164113    29.852323    56938.193   0.62945447    31.395947 
12310000   0.99740236   0.96495963    29.847884    56942.827   0.62940324    31.381018 
12312000   0.99517406    1.0163984    29.849325    56938.786   0.62944791    31.464071 
12314000    1.0013687   0.89765155    29.854464    56938.329   0.62945296    31.280546 
12316000    0.9985338   0.90137301    29.856826    56935.385   0.62948551    31.288746 
12318000     1.003405   0.98022187    29.850552    56938.249   0.62945385     31.40781 
12320000   0.99958948   0.95026414    29.857477    56952.797   0.62929306    31.367527 
12322000   0.99755025     0.979094    29.858387    56949.013   0.62933487    31.414147 
12324000    0.9944807    1.0868944    29.839649    56945.793   0.62937046    31.566604 
12326000   0.99530064   0.93796048    29.845511    56938.404   0.62945213    31.335633 
12328000    0.9937652    1.0623089    29.845434    56925.036   0.62959996     31.53271 
12330000   0.99673828    0.9646708    29.839931    56915.618   0.62970414    31.371874 
12332000    1.0006265   0.95201934    29.846929    56917.846   0.62967948     31.35884 
12334000   0.99549269    1.0391675     29.84274    56905.835   0.62981239    31.492704 
12336000   0.99581551     0.963119    29.837477    56902.925    0.6298446    31.366615 
12338000    0.9918982    1.0113413    29.849111    56896.677   0.62991376    31.454635 
12340000   0.99763851   0.99150482    29.849235    56899.779   0.62987943    31.423354 
12342000   0.98811965    1.0860879    29.835695    56908.637   0.62978139    31.560242 
12344000   0.99869543   0.99090999    29.849488    56909.088   0.62977639     31.42292 
12346000   0.99318584    1.1005112    29.843818    56911.164   0.62975342    31.591346 
12348000   0.99433366    1.0130933    29.846083    56902.721   0.62984685    31.454559 
12350000   0.99526471   0.98206846    29.846649    56897.783   0.62990152    31.405732 
12352000   0.99384218    1.0392686    29.843578    56886.776    0.6300234    31.493149 
12354000   0.99770497    1.0204041     29.84351    56888.099   0.63000874    31.463177 
12356000   0.99956898   0.91448685    29.845637    56893.095   0.62995343    31.297311 
12358000   0.99927377   0.96005972    29.846981    56895.674   0.62992487    31.371067 
12360000   0.99892111   0.97707631    29.848706    56899.911   0.62987797    31.399921 
12362000   0.99832884    1.0151397    29.854239    56911.573   0.62974889    31.466214 
12364000    1.0019624   0.94014967    29.854942    56927.521   0.62957247    31.348257 
12366000    1.0057174   0.95734202    29.858085    56932.213   0.62952058    31.378833 
12368000    1.0008989   0.99887885     29.84952    56931.159   0.62953224     31.43622 
12370000    0.9951202    1.0851237    29.854448    56941.776   0.62941486    31.578467 
12372000    1.0026643    1.0236406    29.854622    56958.831   0.62922639    31.481446 
12374000   0.99619949   0.98192726    29.851729    56959.812   0.62921556    31.412286 
12376000   0.99477574   0.99567173    29.847539    56960.569    0.6292072    31.429961 
12378000    0.9928011    1.0207061    29.840181    56949.714   0.62932713    31.462082 
12380000   0.99628757    1.0186847    29.845797    56945.758   0.62937085    31.464373 
12382000   0.99581644   0.93512229    29.846339    56941.948   0.62941296    31.332044 
12384000    1.0033649    1.0678076     29.85214    56953.769   0.62928233    31.549006 
12386000     1.002198   0.94194021     29.84915    56948.486    0.6293407     31.34586 
12388000   0.99506023   0.93883861     29.85232    56948.708   0.62933824    31.344107 
12390000   0.99978342   0.97893998    29.854116    56945.087   0.62937827    31.409523 
12392000   0.99404283   0.93866143    29.850001    56951.477   0.62930765    31.341579 
12394000    1.0037366    1.0554775    29.857215    56954.114   0.62927851    31.534497 
12396000   0.99835602   0.97738444    29.853987    56949.057   0.62933439    31.407032 
12398000   0.99756725   0.97803639    29.859727    56950.638   0.62931692    31.413851 
12400000    1.0026567    0.9875683    29.859979    56954.988   0.62926885    31.429369 
12402000   0.99905883    1.0436678    29.850622    56958.753   0.62922726    31.509273 
12404000    0.9971321   0.99287572    29.852862    56961.315   0.62919895    31.430862 
12406000   0.99552851    1.0322827    29.853358    56954.911   0.62926971    31.493803 
12408000   0.99425912   0.98658673    29.851744    56937.691   0.62946001    31.419098 
12410000     0.997834     0.995386    29.856937     56934.71   0.62949297    31.438188 
12412000    1.0002584     1.071728    29.850003    56943.153   0.62939964    31.552781 
12414000    1.0004686   0.98297922    29.851074    56940.765   0.62942604    31.412781 
12416000    1.0030602    1.0128884    29.859013     56939.86   0.62943604    31.468213 
12418000    0.9994277   0.96571518    29.858379    56954.927   0.62926953     31.39304 
12420000   0.99642778   0.97388709    29.853089     56951.43   0.62930816    31.400641 
12422000    1.0035588   0.97673187    29.859609     56956.89   0.62924784     31.41183 
12424000   0.99596287    1.0372825    29.856467     56954.26    0.6292769     31.50484 
12426000    1.0017864   0.92201654    29.857026     56939.27   0.62944256    31.321841 
12428000    1.0046915    1.0267254    29.860495    56941.702   0.62941568    31.491731 
12430000    1.0058737   0.98668487    29.861575    56953.687   0.62928322    31.429525 
12432000    1.0069959   0.97395032    29.860889    56960.451    0.6292085    31.408786 
12434000    1.0099529    1.0154591    29.866108    56971.998   0.62908098    31.480302 
12436000    1.0056526    1.0455601    29.868106    56984.295   0.62894522    31.530509 
12438000    1.0090004   0.97969091    29.873877    56998.006   0.62879393    31.431925 
12440000    1.0081316    1.0296468    29.869693      57007.7     0.628687    31.507466 
12442000    1.0089243    1.0809124    29.873287    57012.414   0.62863502    31.592746 
12444000    1.0069915    1.0140659    29.876226    57031.348   0.62842632    31.489885 
12446000    1.0047234    1.0126736    29.871808     57022.06   0.62852868     31.48299 
12448000    1.0053506   0.91785021    29.874472    57003.645   0.62873172    31.334316 
12450000    1.0056664   0.93882282    29.867985    57007.545   0.62868871    31.361288 
12452000    1.0031865    1.0321464    29.861025     57001.48   0.62875561    31.502595 
12454000    1.0041592   0.94383823     29.86792    56996.782   0.62880743    31.368917 
12456000    1.0051107   0.99479744    29.861308    56996.188   0.62881399     31.44333 
12458000    1.0084091    1.0280168    29.869745     56999.14   0.62878142     31.50468 
12460000   0.99944985   0.93175063    29.868189    56999.781   0.62877435    31.350041 
12462000    1.0064037    1.0426651    29.867684    57000.251   0.62876917    31.525948 
12464000    1.0038676     1.032558    29.865711    57005.362   0.62871279    31.508048 
12466000    1.0061073    1.0100362     29.87047     57016.79   0.62858677    31.477306 
12468000    1.0036565   0.93728755     29.87037    57011.806   0.62864172    31.361343 
12470000    0.9992554    1.0050164    29.861818    56999.646   0.62877584    31.460188 
12472000       1.0069    1.0123031    29.864475    56998.122   0.62879265    31.474391 
12474000    1.0046233    1.0428193    29.857815    56993.232    0.6288466    31.516119 
12476000   0.99707244   0.99041936    29.857856    56977.706   0.62901796    31.432404 
12478000   0.99849235    1.0051908    29.855955    56969.692   0.62910644    31.453762 
12480000    1.0020788    0.9913459    29.859176    56965.661   0.62915096    31.434864 
12482000    1.0002064   0.96122149    29.850609    56961.096   0.62920137    31.378294 
12484000    1.0006465     1.020578    29.860024    56959.964   0.62921388    31.482013 
12486000   0.99583078   0.94625869    29.855281    56959.105   0.62922337    31.359133 
12488000   0.99873936     1.032871    29.853578    56958.393   0.62923124    31.495059 
12490000   0.99957244   0.99458184    29.862363    56951.993   0.62930195    31.442816 
12492000    1.0026579    1.0353936    29.863985    56947.308   0.62935371    31.509154 
12494000    1.0087346    1.0140036    29.858048    56953.805   0.62928193    31.469414 
12496000    1.0037645   0.97135189    29.860421    56951.536     0.629307    31.403948 
12498000    1.0063135   0.98434635    29.871525    56955.716   0.62926081    31.435815 
12500000    1.0061649   0.96723346    29.868575     56953.76   0.62928242    31.405617 
12502000    1.0043132    1.0321599     29.86468    56957.371   0.62924252    31.505001 
12504000    1.0083543    1.0843921    29.863354    56962.014   0.62919123    31.586824 
12506000    1.0077697    1.0416402    29.862701     56979.67   0.62899627    31.518737 
12508000    1.0040293    1.0251747    29.865227    56992.183   0.62885817    31.495443 
12510000   0.99830252    0.9596659    29.857246    56988.689   0.62889673    31.383198 
12512000    1.0012462    1.0533595    29.850616    56981.507     0.628976    31.525337 
12514000   0.99674547    1.0256429    29.849469    56979.213   0.62900132    31.480059 
12516000   0.99857607   0.97975077    29.856808      56977.8   0.62901691    31.414399 
12518000   0.99604113   0.99363426    29.847593    56979.367   0.62899961    31.427299 
12520000    0.9969912    1.0549481    29.848629    56979.655   0.62899644    31.525821 
12522000    1.0008285    1.0245021    29.847231    56966.398   0.62914282    31.475641 
12524000   0.99672492    1.0120355    29.846981     56960.17    0.6292116    31.455399 
12526000   0.99572232    1.0217326    29.846206    56955.903   0.62925874    31.469915 
12528000   0.99941643   0.97652913     29.85463    56943.059   0.62940068    31.406152 
12530000   0.99944808   0.98910411    29.853081    56936.272    0.6294757    31.424396 
12532000   0.99637523    1.0434336    29.851305    56928.189   0.62956509    31.508693 
12534000     0.999437    1.0162497    29.844787    56931.471   0.62952879    31.459089 
12536000   0.99842973    1.0585935    29.847904     56919.95   0.62965621    31.529128 
12538000   0.99252399    1.0346084    29.850428    56906.217   0.62980816    31.493164 
12540000   0.99733531   0.97585169    29.854165    56909.787   0.62976866    31.403705 
12542000   0.99706537    0.9472724    29.846149    56914.458   0.62971697    31.350432 
12544000   0.99628877    1.0088292    29.843089    56900.764   0.62986852     31.44474 
12546000   0.99455776    1.0298877    29.849438     56912.17   0.62974229    31.484849 
12548000   0.99709111   0.96390643    29.855138    56907.014   0.62979934    31.385636 
12550000   0.99062011   0.93906675     29.85232    56911.412   0.62975067    31.343492 
12552000   0.99879296    0.9610019    29.857207    56910.239   0.62976365     31.38318 
12554000   0.99907262   0.97475816    29.850133    56919.307   0.62966332    31.398195 
12556000   0.99594895   0.89899114    29.850012    56920.645   0.62964852    31.277779 
12558000   0.99836391   0.99530202    29.857944    56934.176   0.62949888    31.439047 
12560000   0.99833028   0.96589388    29.857117    56939.724   0.62943754    31.391652 
12562000   0.99784502    1.0220115    29.853245    56933.051   0.62951131    31.476745 
12564000   0.99680512    1.0330999    29.849817    56947.319    0.6293536    31.491342 
12566000   0.99377718    1.1199801    29.845162    56946.691   0.62936054    31.624715 
12568000   0.99467117    1.0066084    29.852931    56948.329   0.62934244    31.452392 
12570000   0.99422695   0.97405793    29.840427    56936.396   0.62947433    31.387842 
12572000   0.99585925   0.96730476    29.837511    56929.216   0.62955372    31.374004 
12574000   0.99087444    0.9826773    29.839124    56923.135   0.62962098    31.399869 
12576000   0.99253786    1.0719827    29.830646    56914.288   0.62971885    31.532965 
12578000   0.99824908   0.94768551    29.836765    56915.482   0.62970563    31.341731 
12580000   0.99602541    1.0261523     29.83374    56903.945   0.62983331    31.462984 
12582000   0.98979113   0.94923194    29.841059    56899.804   0.62987914    31.348065 
12584000   0.99163139    1.0177807    29.845873      56893.8   0.62994562    31.461537 
12586000   0.99878092    1.0453274    29.842606    56895.525   0.62992652     31.50205 
12588000   0.99325012    1.0175765    29.846627    56906.945    0.6298001     31.46234 
12590000   0.99857046   0.97794431    29.844659    56906.623   0.62980367    31.397435 
12592000    0.9922254    1.0326177    29.847742    56902.943    0.6298444    31.487223 
12594000   0.99854096   0.94607655    29.844784    56909.398   0.62977296    31.347034 
12596000   0.99232868    1.0084074    29.846976        56919   0.62966672     31.44847 
12598000    1.0010603   0.92007874    29.850585    56911.005   0.62975518    31.311595 
12600000   0.99946061   0.99410037    29.854705    56907.198   0.62979731     31.43315 
12602000    1.0009751    0.9954209    29.857803    56924.236    0.6296088    31.438818 
12604000   0.99919727    1.0047042    29.859829    56936.444   0.62947381    31.455931 
12606000    1.0074431    1.0762418    29.867064    56947.295   0.62935387    31.577138 
12608000    1.0112167    0.9150906    29.875047    56962.754   0.62918306    31.329458 
12610000    1.0084577   0.94790955    29.870681    56969.339   0.62911033    31.377427 
12612000    1.0110393    1.0411639     29.87155    56977.491   0.62902033    31.526765 
12614000   0.99778622   0.97735004    29.864516    56983.002   0.62895949    31.418432 
12616000    1.0064979    1.0078012    29.858413    56984.893   0.62893862    31.460797 
12618000   0.99490084    1.0799877    29.848296    56981.932    0.6289713    31.565366 
12620000   0.99897314   0.92473023    29.854109     56987.85   0.62890599    31.324488 
12622000    1.0090064   0.99672739    29.862673    56989.268   0.62889034    31.447572 
12624000    1.0095411    1.0148835    29.871259    56987.863   0.62890584    31.484988 
12626000    1.0043733   0.95565089    29.868342    57008.934   0.62867339    31.388449 
12628000    1.0030106    1.0195871    29.868768    57004.748   0.62871955    31.490456 
12630000    1.0044539   0.92469369    29.870792    57005.033   0.62871641    31.341556 
12632000    1.0037431    0.9844484    29.862854    56991.915   0.62886113      31.4283 
12634000    1.0086872   0.96625421     29.86233    56993.858   0.62883969    31.398897 
12636000    1.0046249    1.0739492    29.863857    56998.046   0.62879349    31.571809 
12638000   0.99890502   0.96074153    29.864222    57001.817   0.62875189    31.392236 
12640000    1.0002561    1.0598872    29.855468    57007.191   0.62869261    31.541328 
12642000    0.9961455    1.0205574    29.849878    57002.356   0.62874594    31.473041 
12644000     1.002258    1.0408591    29.856196    57000.804   0.62876306    31.511603 
12646000    1.0025276   0.96071688    29.863968    56988.331   0.62890068    31.391581 
12648000    1.0035522   0.93264251    29.865572    56995.912   0.62881703    31.348742 
12650000    1.0029011    1.0329148    29.867603    56998.149   0.62879235    31.510299 
12652000     1.005578    1.0460353    29.868046     56999.82   0.62877391    31.531657 
12654000    1.0001535    1.0959446    29.862354    57001.529   0.62875506    31.605393 
12656000    1.0022709   0.92693646     29.86605    57000.975   0.62876117    31.340277 
12658000   0.99678023    0.9935469    29.852409    56989.307    0.6288899    31.432251 
12660000   0.99494883   0.94318946    29.854929    56985.321   0.62893389    31.354593 
12662000    1.0050963   0.96673529    29.856615    56969.954   0.62910354    31.393302 
12664000   0.99722716    1.0528801    29.856512    56968.193   0.62912299     31.53008 
12666000     1.001282    1.0184632    29.853635    56964.205   0.62916703    31.472384 
12668000   0.99789264    1.0209778    29.852585    56959.317   0.62922102    31.475191 
12670000   0.99937152    1.0183224    29.855153    56963.085    0.6291794    31.473646 
12672000   0.99531756     1.082461    29.859171    56966.999   0.62913618    31.579722 
12674000    1.0056656    1.0033598    29.849581    56970.583    0.6290966    31.444503 
12676000     1.001289    1.0320052    29.863555    56972.034   0.62908058    31.504053 
12678000    1.0042347   0.99050429    29.871126    56980.737   0.62898449    31.445893 
12680000     1.004392   0.95291794    29.864424    56982.627   0.62896363    31.379485 
12682000    1.0105886   0.99425392    29.867731    56987.385   0.62891111    31.448645 
12684000     1.009102    0.9746395    29.872426    56991.509   0.62886561    31.422263 
12686000    1.0069061    1.0696248     29.86842    57000.443   0.62876705    31.569566 
12688000     1.011607    1.0528603    29.872494     57012.76   0.62863121    31.547339 
12690000    1.0050906   0.98185064    29.871418    57025.467   0.62849113    31.433653 
12692000    1.0083479   0.98633535    29.876737     57039.92   0.62833188    31.446505 
12694000    1.0087924   0.99992489    29.876676     57046.81   0.62825599    31.468265 
12696000     1.001751    1.0162187     29.86757    57043.137   0.62829645    31.484989 
12698000    1.0087323   0.93679307    29.871764    57043.847   0.62828862    31.362788 
12700000   0.99772425    1.0101888    29.861754    57042.191   0.62830686     31.46955 
12702000    1.0058939   0.99589962    29.864264    57037.139   0.62836252    31.449176 
12704000   0.99712488    1.0085991    29.861741    57022.733   0.62852125    31.466458 
12706000   0.99792401   0.94702002    29.846081    57012.921   0.62862943    31.352565 
12708000   0.99933883   0.99530161    29.852985    57001.866   0.62875135    31.435966 
12710000    1.0002083    1.0521303     29.85973    57007.937   0.62868439    31.533273 
12712000   0.99619857   0.99806033    29.845931    56997.058   0.62880438    31.433166 
12714000    1.0057502   0.99970183    29.862056    56984.026   0.62894819    31.451538 
12716000    0.9967808    1.0254262    29.851813    56986.199   0.62892421    31.482258 
12718000   0.98901388   0.92617739    29.846109     56972.99   0.62907002    31.318405 
12720000   0.99507864    1.0038622    29.847147    56954.804   0.62927089    31.442425 
12722000   0.99969382   0.93618507    29.844699     56948.44    0.6293412    31.332263 
12724000   0.99850608   0.99101051    29.847679    56948.074   0.62934525    31.422348 
12726000   0.99311026   0.94236428     29.84792    56935.861   0.62948025    31.344971 
12728000   0.99950565   0.99588647    29.848334    56930.141   0.62954349    31.430252 
12730000   0.99858086    1.0258595    29.859272    56923.959   0.62961186    31.488624 
12732000    1.0031463    0.9540905    29.857731     56935.09   0.62948877     31.37339 
12734000   0.99825763   0.99606371    29.853756    56940.684   0.62942694    31.436249 
12736000   0.99666318    1.0186684    29.852697    56931.999   0.62952295    31.470856 
12738000   0.99708162    1.0089686     29.85154    56925.435   0.62959554    31.454106 
12740000    1.0022522    1.0577616      29.8542    56920.782   0.62964701    31.534128 
12742000   0.99370603   0.97518755    29.857593    56924.915   0.62960129     31.40649 
12744000   0.99579645    1.0037535     29.84795    56920.568   0.62964938    31.442097 
12746000    1.0012975    1.0085341    29.852723     56916.96   0.62968929     31.45436 
12748000   0.99989354    1.0278167    29.851789    56923.742   0.62961426    31.484244 
12750000    1.0039762    1.0305024     29.85641    56935.524   0.62948398    31.493469 
12752000   0.99345474   0.97204004    29.852595    56933.729   0.62950382    31.396732 
12754000    1.0001481    1.0931066    29.854585    56939.587   0.62943905    31.591221 
12756000   0.99765334    1.0448416    29.856103    56942.692   0.62940473     31.51615 
12758000    1.0014338   0.99652972    29.853933    56947.194   0.62935497    31.437347 
12760000     0.998785   0.99001262    29.855767    56938.204   0.62945434    31.428578 
12762000   0.99954891   0.97458185    29.859076    56942.666   0.62940502    31.407493 
12764000   0.99710673   0.96600284    29.854367    56929.961   0.62954548    31.388812 
12766000     1.000562    1.0020928    29.851718    56928.895   0.62955728     31.44346 
12768000   0.99924533   0.93626966    29.849846    56928.482   0.62956184    31.337022 
12770000   0.99696914   0.94997337    29.853324     56938.84   0.62944732    31.362542 
12772000     1.001445   0.97208468     29.84384    56940.077   0.62943364     31.38822 
12774000    1.0003327    1.0192199    29.846213    56941.361   0.62941945    31.465515 
12776000   0.99991389   0.97195649     29.85453    56943.518   0.62939561      31.3988 
12778000   0.99694587    1.0112493    29.845669    56938.593   0.62945004    31.452229 
12780000       0.9975   0.98719294    29.849457    56934.828   0.62949167    31.417695 
12782000   0.99690601   0.97640726    29.839112    56922.134   0.62963205    31.389871 
12784000   0.99758086   0.93412921    29.849437    56918.429   0.62967304    31.332952 
12786000   0.99513178   0.99716506    29.848245    56912.195   0.62974201    31.431695 
12788000    1.0022154      1.00324    29.848312    56911.636   0.62974819    31.441393 
12790000   0.98990272   0.92263837    29.839684    56917.161   0.62968706    31.304917 
12792000    0.9931383    1.0460656    29.845707    56919.435   0.62966191     31.50702 
12794000   0.99217727    1.0150215    29.838751    56907.648   0.62979233    31.450428 
12796000    0.9988486   0.96602952    29.844257    56889.821   0.62998968    31.377663 
12798000    0.9932603    0.9369352    29.845186    56896.828    0.6299121    31.332593 
12800000   0.99832423   0.99841075    29.844788    56906.207   0.62980828     31.43005 
12802000   0.99668923    1.0152815    29.840951    56911.535   0.62974931    31.453151 
12804000   0.99766444   0.99137592      29.8429    56915.358   0.62970702    31.417245 
12806000   0.99732085    1.0076412    29.850829    56925.117   0.62959906    31.451278 
12808000    1.0080694    1.0312511    29.854257    56933.436   0.62950707    31.492445 
12810000    1.0017245    1.0045833    29.853779    56942.575   0.62940603     31.44986 
12812000    1.0013131   0.98320877    29.856472    56961.489   0.62919703    31.419112 
12814000   0.99728101    1.0241867    29.862477    56959.156   0.62922281    31.490178 
12816000    1.0041332     1.015686    29.863754    56959.031   0.62922419    31.477941 
12818000   0.99975196    1.0126373    29.855499    56960.644   0.62920637    31.464887 
12820000    1.0042632    1.0081122     29.85046    56966.093   0.62914618     31.45281 
12822000   0.99896646   0.98346899    29.853795    56966.273   0.62914419     31.41698 
12824000    1.0008102    1.0295329    29.857438    56964.435    0.6291645    31.493787 
12826000    1.0016967    1.0660269    29.855763    56963.976   0.62916956    31.550102 
12828000   0.99877547     1.031639    29.855596    56963.805   0.62917145    31.495274 
12830000   0.99980441   0.98138249    29.850353    56960.092   0.62921246    31.410053 
12832000   0.99815411     1.017583     29.84983     56954.93   0.62926949    31.466916 
12834000   0.99762289    1.0105459    29.850433    56954.835   0.62927054    31.456333 
12836000   0.99946752    1.0379277    29.850755    56953.259   0.62928796    31.500123 
12838000   0.99629375   0.96473909    29.849384    56956.335   0.62925397    31.382531 
12840000   0.99906241    1.0303599    29.858086    56955.412   0.62926417    31.495491 
12842000    1.0049294    1.0136437    29.853794    56961.097   0.62920136    31.464795 
12844000    1.0037296    1.0303794    29.858084    56972.851   0.62907155    31.496021 
12846000   0.99761998    1.0680227    29.854318    56973.468   0.62906474    31.552113 
12848000    1.0008449    1.0387132    29.851856    56978.423   0.62901003    31.503202 
12850000   0.99792112   0.95527151    29.854841    56977.856    0.6290163    31.373517 
12852000    1.0005122    1.0272911     29.84871    56963.458   0.62917529    31.481468 
12854000    1.0020709    0.9529695    29.856532     56954.61   0.62927304    31.370929 
12856000   0.99895437   0.97559001    29.853117     56949.63   0.62932806    31.403326 
12858000    1.0011222    1.0315727    29.864339    56940.284   0.62943135    31.503235 
12860000    1.0087372    1.0540019     29.86927    56953.451   0.62928583    31.544188 
12862000    1.0058139    1.0452184    29.866182    56970.363   0.62909903    31.527635 
12864000    1.0072629    1.0010493    29.865624    56972.174   0.62907904    31.456917 
12866000    1.0000678   0.96021036    29.857657    56980.538   0.62898669    31.384256 
12868000    1.0018582   0.98544258    29.862565    56977.784   0.62901709    31.429204 
12870000    1.0021823    1.0113751    29.855358    56976.826   0.62902767    31.463197 
12872000    1.0013992   0.96412604     29.85996    56979.057   0.62900304    31.392745 
12874000    1.0004109    1.0048123    29.853316    56973.048   0.62906938    31.450615 
12876000    1.0015007   0.96106696    29.858753    56969.413   0.62910952    31.386415 
12878000    1.0017562   0.97456532    29.857414    56964.149   0.62916765    31.406389 
12880000     1.005817    1.0189879    29.868009    56969.288    0.6291109    31.487736 
12882000    1.0067887   0.95469884    29.865354     56983.01   0.62895941    31.383256 
12884000    1.0031905   0.99046898     29.86316    56972.677   0.62907348    31.437648 
12886000    1.0070508    0.9742783    29.861047    56968.887   0.62911533    31.409696 
12888000    1.0024815   0.97516627    29.867429      56969.1   0.62911298    31.417494 
12890000    1.0072716   0.92932756    29.870994    56968.948   0.62911465    31.348193 
12892000    1.0052026    1.0300678    29.864076    56973.912   0.62905984    31.501548 
12894000    1.0037073      1.04378    29.868273    56968.321   0.62912158     31.52738 
12896000    1.0114163    1.0004019    29.868415     56980.33   0.62898899    31.458907 
12898000    1.0056124     1.102112    29.859043     56978.65   0.62900753    31.611187 
12900000    1.0054538     0.926799    29.859809    56973.907   0.62905989    31.333117 
12902000    1.0043367    1.0125761    29.850738    56972.831   0.62907177    31.460373 
12904000   0.99524459     1.049078    29.849964    56976.795   0.62902801     31.51774 
12906000   0.99439105    1.0218985    29.853507    56961.164   0.62920063    31.477629 
12908000    1.0008593    1.0231863    29.857161    56956.915   0.62924756    31.483208 
12910000    1.0040975   0.99083444    29.858279    56967.717   0.62912825    31.433211 
12912000    1.0019028   0.98345642    29.859143    56954.048   0.62927924    31.421973 
12914000   0.99608128    1.0561044    29.851626     56954.21   0.62927744    31.529906 
12916000   0.99534735   0.97128229    29.852089    56947.779   0.62934851    31.395403 
12918000    0.9976206   0.95638675    29.844511    56931.966   0.62952331    31.363734 
12920000   0.99923393   0.99270797    29.843319    56930.636   0.62953803    31.420202 
12922000   0.99576793    0.9718748    29.846936     56932.97   0.62951221    31.390789 
12924000   0.99560989   0.97088456    29.839534    56932.914   0.62951284    31.381813 
12926000   0.99724182    1.0060087    29.838491    56930.483   0.62953972    31.436498 
12928000   0.99658483   0.98669861    29.848645    56927.537   0.62957229    31.415897 
12930000   0.99312071    0.9814172    29.846133     56920.49   0.62965024    31.404803 
12932000   0.99427081    0.9961862    29.842902    56915.193   0.62970883    31.424881 
12934000   0.99942787   0.97428696    29.852033    56919.926   0.62965648    31.399364 
12936000    1.0000718   0.99653911    29.854808    56924.217   0.62960901    31.437599 
12938000    1.0023555    1.0324223    29.857232    56919.266   0.62966378    31.496873 
12940000   0.99580076   0.96514048    29.849521    56913.672   0.62972566    31.382158 
12942000   0.99972456   0.90718649    29.846812    56913.993   0.62972211    31.287426 
12944000   0.99449967    1.0060572    29.854733    56918.018   0.62967758    31.452467 
12946000   0.99946263    1.0062971    29.848498    56933.993   0.62950091    31.447062 
12948000    0.9955517    1.0193766    29.852293    56925.111   0.62959912    31.471382 
12950000    1.0011871     0.980764    29.850433    56932.122   0.62952159    31.408384 
12952000   0.99940492   0.99621333     29.84334    56942.295   0.62940913    31.426116 
12954000   0.99967134    1.0706028     29.85303    56955.929   0.62925846    31.554402 
12956000   0.99965369   0.98218567    29.846977    56955.131   0.62926727    31.407818 
12958000   0.99741051   0.97904744    29.845753    56954.446   0.62927484    31.401588 
12960000   0.99650879    1.0247457    29.844122    56951.742   0.62930472      31.4725 
12962000   0.99743703    1.0058628    29.846008    56938.207   0.62945432       31.444 
12964000   0.99437044    1.0398599    29.844248    56927.616   0.62957141    31.495943 
12966000   0.99986871    0.9823587    29.850961     56935.66   0.62948247    31.411543 
12968000   0.99898275    1.0113944    29.840591    56935.335   0.62948606     31.44729 
12970000   0.99926377   0.96519146    29.847898    56939.224   0.62944307    31.381303 
12972000    1.0043486   0.99327036    29.861848    56937.785   0.62945898    31.439823 
12974000    1.0021619   0.99237407    29.856177    56945.793   0.62937046     31.43295 
12976000    1.0001826   0.96799932    29.854707    56951.891   0.62930307    31.392916 
12978000    1.0006423    1.0321858    29.845243    56952.038   0.62930145    31.485452 
12980000   0.99796424     1.060825    29.845904    56951.301   0.62930959    31.531601 
12982000   0.99861701     1.008994     29.85042    56943.175    0.6293994    31.453526 
12984000   0.99834198   0.96938877    29.849093    56946.415   0.62936359    31.389361 
12986000   0.99376262   0.98225887    29.846179    56941.688   0.62941583    31.406767 
12988000   0.99936608     1.008796    29.845133    56941.271   0.62942044    31.447871 
12990000   0.99153965   0.93697637    29.844887    56941.073   0.62942263    31.333515 
12992000   0.99458049   0.96123967    29.846964     56923.67   0.62961506    31.373674 
12994000   0.99590285    1.0362926    29.838747    56922.715   0.62962563    31.484634 
12996000   0.99938204    1.0089275    29.839854    56911.459   0.62975015    31.441962 
12998000   0.99413709   0.98944688    29.846021    56907.119   0.62979818    31.417075 
13000000   0.99294103    1.0338881    29.841993    56901.795   0.62985711    31.483458 
13002000   0.99217401    1.0052247    29.851092    56913.554   0.62972697    31.447378 
13004000     1.001188   0.96437754    29.851973    56925.777   0.62959175    31.383723 
13006000    1.0007075    1.0460713    29.854413    56930.596   0.62953846    31.516061 
13008000   0.99588657    1.0456489     29.85334    56939.975   0.62943477    31.514591 
13010000   0.99872046   0.94947035    29.849121    56938.593   0.62945005    31.357534 
13012000    1.0047601   0.98714488    29.850879    56945.296   0.62937595    31.419329 
13014000   0.99698054   0.95707868    29.845836    56941.085    0.6294225    31.366403 
13016000    1.0024064   0.95772604    29.850141    56939.196   0.62944338    31.371686 
13018000   0.99739948   0.88554569    29.848006    56934.219    0.6294984    31.254754 
13020000   0.99417371   0.99708541    29.849338    56932.303   0.62951959    31.433221 
13022000   0.99699055    1.0118765    29.843704    56937.202   0.62946542    31.451221 
13024000   0.99900317   0.99373518    29.844518    56936.249   0.62947596    31.423188 
13026000     1.000568    1.0241417     29.84352    56946.743   0.62935996    31.470795 
13028000    1.0001733    1.0169802    29.843201    56953.634   0.62928381    31.459292 
13030000    1.0006728    1.0505944    29.852726    56949.429   0.62933028    31.522111 
13032000    0.9952474    1.0004018    29.846723    56959.028   0.62922422     31.43662 
13034000   0.99692348   0.98849488    29.840899    56953.441   0.62928595    31.411719 
13036000   0.99402933    1.0669248    29.841014    56964.554   0.62916318    31.536798 
13038000   0.99190748   0.93495936    29.839865    56950.661   0.62931666    31.325539 
13040000   0.99237082    1.0425888    29.841658    56949.031   0.62933467    31.498311 
13042000   0.99188658    1.0268053    29.837961    56940.365   0.62943045    31.469285 
13044000   0.99819162   0.97703626    29.842996    56925.372   0.62959623    31.394841 
13046000   0.99450236   0.97526887    29.837607    56922.153   0.62963184    31.386558 
13048000   0.99948494   0.97236907    29.851822    56927.246   0.62957551    31.396306 
13050000   0.99895106    1.0034783    29.852194    56922.853    0.6296241    31.445968 
13052000    1.0032926    1.0690645    29.848919    56920.167   0.62965381     31.54678 
13054000      1.00779   0.97629215    29.850949    56937.567   0.62946139    31.401945 
13056000   0.99905676   0.93981962    29.849736    56938.112   0.62945537    31.342804 
13058000   0.99499191   0.96450354    29.841591    56943.254   0.62939853    31.374012 
13060000   0.99292557   0.98377886    29.842331    56943.684   0.62939377    31.405389 
13062000   0.99158524   0.92249107    29.842166    56934.266   0.62949789    31.307605 
13064000   0.99667594    1.0314668    29.844835    56910.383   0.62976206    31.482703 
13066000   0.99926153   0.98742894    29.849434    56909.915   0.62976723     31.41736 
13068000    1.0009959    1.0330719    29.850723    56913.623   0.62972621    31.491233 
13070000   0.99517765    1.0073625    29.839617    56907.151   0.62979782    31.439118 
13072000   0.99076984    1.0167744    29.843997    56908.445   0.62978351    31.458479 
13074000   0.99866038   0.96830962    29.845011    56902.857   0.62984535    31.382388 
13076000    1.0002847   0.95358261    29.844129    56907.228   0.62979698     31.35824 
13078000   0.99680226   0.99524496    29.840303    56914.841   0.62971273    31.420778 
13080000   0.99365882   0.93280708     29.84095     56914.81   0.62971308    31.322271 
13082000    0.9982376   0.94342684    29.839061    56910.281   0.62976319    31.337127 
13084000   0.99517381   0.97426164    29.843728     56899.65   0.62988085    31.390468 
13086000   0.99397933    1.0086516    29.836418    56892.718    0.6299576     31.43756 
13088000   0.99966099   0.99012531    29.843638    56895.193    0.6299302     31.41544 
13090000   0.99828312   0.95377529    29.844952    56902.681   0.62984729    31.359248 
13092000   0.99944527   0.96884768    29.846721    56914.603   0.62971536     31.38527 
13094000    0.9994798    1.0465089    29.847484    56916.119   0.62969859    31.509404 
13096000   0.99608479    1.0194072    29.847444     56912.33   0.62974051    31.466218 
13098000      1.00377    1.0003537    29.855118    56918.322   0.62967422    31.443802 
13100000   0.99563788   0.94464729    29.848553    56916.469   0.62969472     31.34872 
13102000   0.99885534    1.0266608    29.851568    56924.579   0.62960501     31.48221 
13104000    1.0008973    1.0297311    29.848974    56924.973   0.62960066    31.484505 
13106000   0.99631831    1.0090582     29.85037    56932.677   0.62951545    31.453283 
13108000    0.9972098   0.96914768    29.851512    56939.779   0.62943694    31.391218 
13110000   0.99973541     1.001872    29.845747    56940.069   0.62943373    31.437451 
13112000   0.99321026    1.0046565    29.845987    56935.826   0.62948063    31.441996 
13114000     1.002356   0.98799163     29.83946    56928.693   0.62955951    31.408798 
13116000   0.99481578    1.0240467    29.852527    56934.681   0.62949329    31.479307 
13118000    1.0010495    1.0258162    29.858009     56934.97    0.6294901    31.487607 
13120000   0.99743539    1.0675742    29.853395     56935.15   0.62948811    31.549335 
13122000    1.0012282   0.98395681    29.850562    56931.634   0.62952698    31.413572 
13124000     1.006343    1.0026748    29.856662    56930.337   0.62954132    31.449369 
13126000   0.99588131    1.0178476    29.846813    56936.401   0.62947428    31.463793 
13128000   0.99763356    1.0286525     29.85341    56941.315   0.62941996    31.487696 
13130000    0.9990782   0.97362807    29.847402    56936.174   0.62947679    31.394127 
13132000   0.99761829    1.0159243    29.849595    56935.819   0.62948071    31.463504 
13134000    0.9983646    1.0228891    29.846503    56940.646   0.62942736    31.471614 
13136000   0.99686231   0.97420121    29.848541    56946.237   0.62936555    31.396451 
13138000   0.99747571    1.0325654    29.853127    56950.429   0.62931923    31.493892 
13140000   0.99913571    1.0094963    29.852049    56951.452   0.62930793    31.456186 
13142000    1.0022488    1.0055305    29.848345    56952.466   0.62929671    31.446209 
13144000    1.0010116    1.0672597    29.852702    56961.104   0.62920129    31.548915 
13146000    1.0048586   0.95139197    29.860153    56973.328   0.62906629    31.372541 
13148000    1.0026744    1.0501935    29.858179    56968.448   0.62912017    31.527484 
13150000   0.99753153    1.0425336    29.841608     56976.17   0.62903491    31.498963 
13152000   0.99526777   0.99717037     29.85047    56963.642   0.62917326     31.43536 
13154000   0.99655069   0.93638096    29.849285    56965.579   0.62915186    31.337608 
13156000   0.99888336    1.0335708    29.858262    56967.824   0.62912707    31.501127 
13158000    1.0000491     1.007195    29.854918     56972.22   0.62907852    31.455982 
13160000    1.0049579   0.98924131    29.865486    56978.256   0.62901188    31.438177 
13162000    1.0020704   0.96567426    29.862216    56991.976   0.62886045     31.39781 
13164000   0.99877176    1.0363284    29.854223    56982.175   0.62896862    31.501886 
13166000    1.0030027   0.96029419    29.855212    56982.708   0.62896274    31.382002 
13168000    1.0053039   0.94234623    29.857307    56975.149   0.62904618    31.355363 
13170000    1.0019174    0.9757467    29.850115      56976.5   0.62903127    31.401304 
13172000   0.99556726   0.96776164    29.853669    56964.138   0.62916777     31.39183 
13174000     1.001147    1.0017206    29.854382    56957.319    0.6292431    31.446327 
13176000   0.99879883   0.98349656    29.854119    56968.916   0.62911501     31.41742 
13178000    1.0055276    1.0264859    29.852444    56968.915   0.62911502    31.484079 
13180000    1.0024472    1.0134635     29.85636    56968.616   0.62911832    31.467286 
13182000    1.0024623   0.97070469    29.851913    56959.612   0.62921777    31.394629 
13184000    1.0025399    1.0330954    29.857281    56965.898   0.62914833    31.499335 
13186000    1.0050032    1.0496043    29.861044    56969.833   0.62910488    31.529453 
13188000    1.0011505   0.98017322    29.857951    56966.048   0.62914668    31.415892 
13190000    1.0028299   0.92878949    29.858245    56975.544   0.62904183     31.33476 
13192000    1.0031262    1.0448963     29.85365    56980.041   0.62899217    31.514873 
13194000   0.99943828    1.0022842    29.848868     56978.09   0.62901371     31.44229 
13196000    1.0033604    1.0492857    29.859274    56977.086    0.6290248    31.527389 
13198000    1.0073573   0.99163095    29.862839    56975.159   0.62904607    31.439244 
13200000    1.0014874    1.0236203    29.857606    56981.352   0.62897771    31.485041 
13202000   0.99978806   0.98474724    29.854659    56973.182    0.6290679    31.420066 
13204000   0.99972292     0.969397    29.853458    56970.382   0.62909882    31.394387 
13206000    1.0035404    1.0326908     29.85546    56966.717   0.62913929    31.496894 
13208000    1.0054052    1.0298841    29.860321    56970.104   0.62910189    31.497391 
13210000    1.0053976   0.95531245    29.859879    56976.177   0.62903483    31.378575 
13212000   0.99985703     1.089386    29.854823    56976.171    0.6290349     31.58666 
13214000    1.0010136   0.93004622    29.854275    56986.317   0.62892291    31.333067 
13216000   0.99982828    1.0780752     29.85397    56990.825   0.62887315    31.568267 
13218000    1.0026089   0.98579488    29.852418    56986.183   0.62892438    31.419848 
13220000   0.99262973    1.0593744     29.85005    56975.891   0.62903799    31.534169 
13222000   0.99784313   0.99188822    29.848941    56969.581   0.62910766      31.4256 
13224000    1.0019275   0.96763385    29.848646    56959.655   0.62921729    31.386483 
13226000    1.0028238    1.0420413    29.844937    56953.861    0.6292813     31.50086 
13228000   0.99659064   0.98873687    29.854674    56952.553   0.62929576    31.425854 
13230000   0.99783182    1.0222535    29.854946    56966.115   0.62914594    31.479773 
13232000     1.003307    1.0353582    29.852405    56981.455   0.62897657    31.498505 
13234000    1.0016557    1.0653527    29.854782    56977.494   0.62902029    31.548451 
13236000    1.0054607    1.0476175     29.85705    56977.516   0.62902005    31.522526 
13238000   0.99850878    1.1101018    29.857728    56978.547   0.62900867    31.622571 
13240000    1.0063012    1.0136306    29.855034     56979.72   0.62899572     31.46654 
13242000    1.0042942   0.94856481    29.860208    56988.125   0.62890296    31.368493 
13244000    1.0093036   0.99130862    29.859351    56993.081   0.62884826    31.435739 
13246000     1.003961   0.98870646    29.857891    56995.322   0.62882354    31.430203 
13248000    1.0007446     1.015918    29.853533    56987.943   0.62890496    31.468909 
13250000    1.0029061     1.011259    29.859636    56976.123   0.62903543    31.467271 
13252000    1.0048384    1.0198159    29.863045    56979.531   0.62899781    31.484379 
13254000    1.0067497    1.0196388    29.855007    56985.135   0.62893594    31.476219 
13256000      1.00252   0.99249124    29.854667    56985.408   0.62893294    31.432722 
13258000    1.0045804   0.98932864    29.860462    56978.398   0.62901032    31.433296 
13260000    1.0048072   0.98636501    29.863424     56977.93   0.62901548    31.431534 
13262000    1.0053819    1.0150914    29.860293    56962.161   0.62918961    31.473624 
13264000    1.0059382   0.95175377    29.856712    56982.548    0.6289645    31.369919 
13266000   0.99563241   0.93829669    29.844249    56984.465   0.62894334    31.336111 
13268000    1.0041841    1.0642632    29.851743    56988.634   0.62889733    31.544011 
13270000    1.0060361   0.97518829    29.857543    56981.518   0.62897587    31.407981 
13272000   0.99957273   0.99056416    29.856901    56978.233   0.62901214    31.431694 
13274000   0.99934634     1.044548    29.856622    56982.756   0.62896221    31.517371 
13276000   0.99971792    1.0166702    29.847184    56976.909   0.62902675    31.463444 
13278000    0.9973541   0.96107579    29.844702    56967.814   0.62912717    31.372335 
13280000    1.0049731   0.95621909    29.847373     56968.94   0.62911474    31.367317 
13282000   0.99582115    1.0068915    29.841041    56963.942   0.62916994     31.44139 
13284000   0.99744681   0.98502536    29.843582    56963.265   0.62917742    31.409158 
13286000   0.99509456   0.98037086    29.839269    56950.802   0.62931511    31.397107 
13288000    0.9961655   0.91095144    29.839538    56947.939   0.62934675    31.286994 
13290000    0.9953934    1.0389418    29.836237    56944.268   0.62938732    31.486957 
13292000   0.99672505     1.017084     29.84001    56943.085   0.62940039    31.455967 
13294000   0.99323936   0.98527125    29.838492    56937.223    0.6294652    31.403743 
13296000   0.99755786   0.97732626    29.839964    56935.675    0.6294823    31.392552 
13298000   0.99614598   0.97357736    29.845539    56928.918   0.62955702    31.391987 
13300000    1.0043886    1.0415386    29.853865    56942.728   0.62940433    31.508666 
13302000    1.0062108    1.0030503    29.854563    56945.327   0.62937561    31.448286 
13304000   0.99877198    1.0079989    29.855011    56937.487   0.62946227    31.456376 
13306000    1.0065676   0.95948632    29.853936    56948.192   0.62934395    31.378517 
13308000    1.0007581   0.92794828    29.852608    56966.214   0.62914484    31.327544 
13310000      0.99831    1.0136833    29.845243    56959.484   0.62921919    31.456261 
13312000   0.99033679    1.0077064    29.836857    56947.993   0.62934615    31.438053 
13314000   0.99497678   0.97120986     29.83446    56945.403   0.62937477    31.377595 
13316000   0.99725606   0.99532201    29.839872    56938.092   0.62945559    31.421115 
13318000   0.99532053    1.0154389    29.835302    56932.669   0.62951554     31.44835 
13320000   0.99573612   0.99297636    29.834502    56930.899   0.62953512    31.411819 
13322000   0.99302605   0.98201492    29.837629    56930.178   0.62954309    31.397514 
13324000   0.98940161    1.0706067     29.83786    56937.164   0.62946584    31.538678 
13326000   0.99902069    1.0297038    29.843491    56937.077   0.62946681    31.479326 
13328000   0.99521664   0.99507063    29.845838    56931.196   0.62953183     31.42649 
13330000   0.99675757   0.98660861    29.844798     56916.79   0.62969117    31.411611 
13332000     1.001896    1.0106072    29.850018    56929.815   0.62954711     31.45531 
13334000    1.0010908     1.065137     29.84963    56941.286   0.62942027    31.541881 
13336000    1.0051217    1.0863222    29.854195    56944.127   0.62938887     31.58019 
13338000   0.99730639   0.99733669    29.838865    56951.322   0.62930936    31.423676 
13340000   0.99412069    1.0584266    29.845375    56956.349   0.62925382    31.527409 
13342000   0.99582686    1.0314781    29.845288     56949.97    0.6293243    31.484313 
13344000   0.99480855   0.98784889    29.841639    56936.129   0.62947729    31.410955 
13346000    0.9960312    1.0346676    29.841183    56926.793   0.62958052    31.484607 
13348000   0.99523221    1.0079582    29.848305    56922.113   0.62963229    31.449174 
13350000   0.99661665   0.97484453    29.845893    56915.921   0.62970078    31.394001 
13352000    1.0020705    1.0492153    29.858871    56928.129   0.62956575    31.525441 
13354000   0.99880919    1.0351368    29.852958    56934.988    0.6294899    31.497364 
13356000   0.99689566    1.0070135    29.852723    56947.669   0.62934972    31.452808 
13358000    1.0028546    1.0132103    29.853173    56964.225   0.62916682    31.463573 
13360000    0.9990249   0.99621732    29.847977    56962.241   0.62918873    31.431314 
13362000    1.0034266    0.9461465    29.850602    56978.097   0.62901364    31.354777 
13364000    1.0050883    1.0017087    29.859821    56996.426   0.62881136    31.452841 
13366000    1.0028203   0.98391294    29.856514    57000.923   0.62876174    31.421357 
13368000    1.0016308    0.9960752    29.852044    57009.611   0.62866593    31.436471 
13370000     1.000715    1.0131287    29.849521    57004.129   0.62872638    31.460919 
13372000    0.9958448    1.0277202    29.846028    56996.564   0.62880984    31.480417 
13374000   0.99669575    1.0600515    29.840839    56993.454   0.62884414    31.526553 
13376000   0.99483251   0.99028821    29.847739    56984.725   0.62894048    31.422273 
13378000     1.005229   0.96098705    29.851787     56972.66   0.62907367    31.379409 
13380000    1.0040232   0.97609752      29.8505    56971.929   0.62908174    31.402123 
13382000    1.0046531   0.95355454     29.85503    56978.117   0.62901341    31.370983 
13384000   0.99782864    1.0216723    29.865959    56980.561   0.62898644    31.490274 
13386000    1.0053017   0.97639882    29.852309    56984.801   0.62893963    31.404761 
13388000    1.0055099   0.97641017    29.863627    56982.526   0.62896475    31.416036 
13390000    1.0034698    1.0992577    29.863742    56988.217   0.62890194    31.611642 
13392000    1.0042217    0.9475656    29.854603    56992.173   0.62885828    31.361406 
13394000    1.0076128    1.0357721    29.851718    56984.135   0.62894699    31.498553 
13396000    1.0018847    1.0010707    29.859645    56992.219   0.62885778    31.451532 
13398000    1.0086127   0.98676391    29.858995    56997.332   0.62880136    31.428272 
13400000    1.0019474    1.0737082    29.856153    57001.441   0.62875604    31.563823 
13402000    1.0011059   0.89299954     29.85912    57005.742    0.6287086    31.279491 
13404000    1.0034199   0.98330515    29.858523    57001.178   0.62875893    31.422405 
13406000    1.0007112   0.98673617    29.855906    56995.915   0.62881699      31.4251 
13408000   0.99968232    1.0448603     29.84773    56985.541   0.62893147    31.509056 
13410000    1.0028999    1.0052807    29.845807    56990.708   0.62887444    31.444346 
13412000    1.0004665   0.99797114    29.850585     57001.99   0.62874998    31.437816 
13414000    1.0040841   0.99986383    29.855362    56998.902   0.62878404    31.445517 
13416000   0.99198304    1.0296093    29.847249    56993.061   0.62884849    31.484542 
13418000   0.99881492   0.99208251    29.845734    56992.441   0.62885532    31.423335 
13420000   0.99843908    0.9432144    29.847772    56981.373   0.62897748    31.347371 
13422000    1.0005114     1.007595    29.847408    56978.184   0.62901267    31.449276 
13424000   0.99679313    1.0219079     29.84878    56973.696   0.62906223    31.473274 
13426000   0.99406448    1.0348921    29.848584    56960.769   0.62920499    31.493345 
13428000   0.99421246   0.95925034    29.841702    56943.442   0.62939645    31.365782 
13430000    1.0004862    1.0755142    29.847199    56942.463   0.62940727    31.555972 
13432000   0.99803252    0.9386576    29.840194     56942.44   0.62940752    31.331529 
13434000    1.0000529    1.0062092    29.855494    56939.364   0.62944153    31.454069 
13436000    1.0003067    1.0004342     29.85035    56951.493   0.62930747    31.440088 
13438000    1.0039627    1.0058572    29.858951    56953.749   0.62928254     31.45737 
13440000    1.0033541    1.0091317    29.857851    56961.621   0.62919557    31.461695 
13442000    1.0004751   0.96924126    29.847961    56966.424   0.62914253    31.388536 
13444000    0.9999386   0.98311555    29.843955    56960.962   0.62920286    31.406433 
13446000   0.99615138   0.95916363    29.846476    56954.745   0.62927153     31.37072 
13448000   0.99766865    0.9954073    29.845688     56960.25   0.62921072    31.427682 
13450000   0.99420065    1.0331409    29.843228    56951.781   0.62930429    31.484947 
13452000   0.99531906    1.0008455    29.847536    56951.905   0.62930292    31.437939 
13454000    0.9927187    1.0018004     29.84825    56946.052    0.6293676    31.440007 
13456000   0.99705413    1.0570879    29.834267    56945.337    0.6293755    31.513849 
13458000    0.9924603   0.97993407    29.832432    56946.892   0.62935832    31.389469 
13460000   0.99202382   0.96240295    29.853072    56936.068   0.62947796    31.381962 
13462000   0.99635842     1.028649    29.846908    56931.995   0.62952299    31.480921 
13464000   0.99950118    1.0384317    29.848375    56939.698   0.62943783    31.498152 
13466000   0.99759345   0.98705655    29.856086     56934.18   0.62949883     31.42409 
13468000   0.99677139    0.9483814    29.850273    56939.796   0.62943674    31.356988 
13470000    1.0072291   0.99364786    29.857116    56936.554   0.62947258    31.435657 
13472000   0.99769766   0.95114815    29.862829    56935.619   0.62948293    31.373829 
13474000    1.0010739    1.0063582    29.853593    56939.925   0.62943533     31.45242 
13476000    1.0008202   0.97816652    29.851479    56942.175   0.62941045    31.405579 
13478000   0.99755637    1.0221443    29.847261    56945.727   0.62937119    31.471333 
13480000    0.9959954   0.99445266    29.841533    56940.168   0.62943264    31.421452 
13482000   0.99916302    1.0453969    29.848479    56949.206   0.62933275    31.509598 
13484000   0.99926313   0.97759637    29.846599    56945.631   0.62937226    31.399887 
13486000    1.0009758    0.9967342    29.850922    56960.241   0.62921082    31.435024 
13488000    0.9956622    1.0191932    29.848714    56958.264   0.62923266    31.468454 
13490000   0.99872067   0.96515549    29.855275     56956.28   0.62925458    31.389083 
13492000    1.0031442    1.0172195    29.856286     56962.46   0.62918631    31.473008 
13494000    1.0002161   0.98204662    29.852773    56965.935   0.62914793    31.413688 
13496000   0.99808808    1.0010713    29.848704    56950.809   0.62931503    31.439436 
13498000   0.99764877   0.95190602    29.844431    56950.382   0.62931975    31.357026 
13500000   0.99362187    1.0125405    29.843945    56944.576   0.62938391    31.452726 
13502000   0.99865154    1.0133633    29.845553    56941.357   0.62941949     31.45555 
13504000   0.99398102   0.99391921    29.834103    56939.303   0.62944219    31.413151 
13506000   0.99397348    1.0248597    29.829575    56935.586   0.62948329    31.457672 
13508000   0.99169121   0.97204759    29.838876    56923.184   0.62962044    31.382739 
13510000      0.99547   0.98359835    29.835377    56921.013   0.62964446    31.397526 
13512000   0.99062786    1.0234487    29.838392    56915.134   0.62970949    31.463663 
13514000   0.98735514     1.028527    29.831719    56901.451   0.62986092    31.464662 
13516000   0.99382228   0.96729361    29.828044    56895.053   0.62993174    31.363597 
13518000   0.98529772    1.0220488    29.832769    56885.177   0.63004111    31.454963 
13520000   0.98534043   0.96421005    29.836455    56881.777   0.63007877    31.366756 
13522000    0.9925294   0.96075227    29.838556    56877.588   0.63012518    31.363256 
13524000    0.9933333    1.0007289    29.838482    56871.527   0.63019232    31.426456 
13526000   0.99618626   0.96249655    29.842358    56870.902   0.63019926    31.369647 
13528000   0.99613579    1.0221594    29.840935    56880.165   0.63009662    31.463162 
13530000   0.99467398    1.0593279     29.84866    56889.299   0.62999546    31.530145 
13532000   0.99677392   0.97720679    29.838938    56894.392   0.62993906     31.39021 
13534000    1.0015786    1.0110353    29.858496    56905.707   0.62981381    31.463788 
13536000   0.99942506    1.0116882       29.849    56922.841   0.62962423    31.455812 
13538000    1.0022331     1.045373    29.854246    56937.025   0.62946738    31.514972 
13540000   0.99888349   0.96646528    29.853581    56943.204   0.62939907    31.389118 
13542000    0.9951922   0.95667582    29.847068    56953.714   0.62928293    31.367331 
13544000   0.99491774    1.0580833    29.836029    56957.228   0.62924411    31.517544 
13546000   0.99710262   0.98200099      29.8405    56955.798    0.6292599    31.401065 
13548000   0.99790096    1.0311256    29.850393    56961.604   0.62919577    31.489192 
13550000    1.0037674   0.98892902    29.852196    56964.934   0.62915898    31.424023 
13552000   0.99672813    1.0277735    29.855529    56962.577   0.62918501    31.489029 
13554000    1.0027749   0.97556815    29.861506    56968.721   0.62911716      31.4122 
13556000    1.0008153    1.0303144    29.852724    56974.619   0.62905204    31.490608 
13558000   0.99806472    1.0229074    29.854072     56973.48   0.62906461    31.480149 
13560000      1.00094     1.019675    29.852583    56976.954   0.62902625     31.47362 
13562000    1.0020051   0.96939689    29.852894    56979.662   0.62899636    31.394075 
13564000    0.9958314   0.95546813    29.845558    56973.571    0.6290636    31.364431 
13566000   0.99291914   0.91888996    29.845407    56962.033   0.62919103    31.305837 
13568000   0.99397482    1.0120319    29.847577    56957.861   0.62923711    31.455925 
13570000   0.99676619    1.0288476    29.856035    56964.082   0.62916839    31.491285 
13572000    1.0039645   0.96667933    29.860491    56978.177   0.62901275    31.397311 
13574000   0.99814626   0.97566014    29.861972    56976.205   0.62903452    31.413016 
13576000    1.0020433   0.94944912    29.856271    56983.017   0.62895933    31.365826 
13578000    1.0050136   0.98597822    29.859574    56982.033   0.62897019    31.427181 
13580000   0.99984825   0.95828043    29.849377    56977.257   0.62902291     31.37282 
13582000    1.0010407   0.97936779    29.855069    56970.527   0.62909722    31.411852 
13584000   0.99999188    1.0383082    29.848855    56962.033   0.62919102    31.499082 
13586000   0.99969633   0.99130512     29.84707    56961.011   0.62920231    31.422565 
13588000    1.0022406   0.97401231    29.848378    56948.266   0.62934313    31.396043 
13590000   0.99775669    1.0971358    29.849175    56942.691   0.62940474    31.592307 
13592000    1.0018183    1.0116961    29.852259    56941.943   0.62941302    31.459623 
13594000    1.0011954   0.96947535    29.857157    56943.259   0.62939846    31.397478 
13596000    1.0053804    1.0333314    29.855988     56954.89   0.62926994    31.498099 
13598000    1.0031978   0.96069346    29.856955    56956.456   0.62925264    31.383676 
13600000   0.99654942    0.9249086    29.853128    56957.503   0.62924106    31.323007 
13602000   0.99863363    1.0346985    29.847119    56957.421   0.62924197    31.491476 
13604000    1.0067822   0.96818977     29.85744    56963.217   0.62917795    31.396257 
13606000    1.0020187    1.0190566    29.861752    56970.502   0.62909749    31.481623 
13608000    1.0000415    1.0037017    29.867013    56972.072   0.62908016     31.46252 
13610000    1.0026118   0.95688727    29.860848     56974.63   0.62905191    31.382006 
13612000    1.0048119   0.96197181    29.865674    56976.012   0.62903665    31.394951 
13614000    1.0052516   0.93563815    29.869635    56981.925   0.62897138    31.357204 
13616000      1.00674    1.0409678    29.856881    56980.188   0.62899055    31.511863 
13618000    0.9999314   0.97358731    29.863443    56990.849   0.62887289    31.411589 
13620000    1.0058457    1.0221665    29.860217    56995.882   0.62881735    31.485755 
13622000    1.0052956   0.99641644    29.864352    56991.454   0.62886622    31.448817 
13624000    1.0017542   0.99394263    29.853023    56981.482   0.62897627    31.433277 
13626000    1.0009897   0.99015412    29.847608    56979.469   0.62899849    31.421784 
13628000   0.99724903    1.1428945      29.8484    56963.932   0.62917005    31.664911 
13630000   0.99641832   0.93559094    29.852151    56953.777   0.62928223     31.33891 
13632000   0.99854643   0.96648567    29.846028    56954.882   0.62927003    31.381912 
13634000    1.0010016   0.96632067    29.841857    56946.604    0.6293615    31.377256 
13636000   0.99876681    1.0330179    29.846756    56939.466   0.62944039    31.487924 
13638000   0.99808257   0.98499164    29.847074    56939.839   0.62943627    31.411953 
13640000   0.99990778   0.95624282    29.847439    56940.001   0.62943448    31.366649 
13642000   0.99547237    1.0125896    29.845793    56930.323   0.62954148    31.454248 
13644000   0.99608866   0.99701163    29.849899    56933.635   0.62950486    31.433701 
13646000   0.99560683    1.0164557    29.851122    56938.933   0.62944629    31.465963 
13648000    1.0026916   0.97945961    29.850622    56941.955   0.62941289     31.40677 
13650000   0.99819002   0.98737203    29.847543    56943.824   0.62939222    31.416314 
13652000   0.99578584   0.95284508    29.846081    56941.767   0.62941497     31.35994 
13654000   0.99831689   0.94974178    29.847813    56951.398   0.62930852    31.356996 
13656000    0.9978755     1.017124    29.848814     56946.17   0.62936629    31.464922 
13658000   0.99990001   0.98678643    29.843203    56943.813   0.62939234    31.411043 
13660000   0.99860442    1.0430981    29.849156    56944.368   0.62938621    31.506482 
13662000   0.99519497   0.97630861     29.84744    56947.222   0.62935466    31.398725 
13664000   0.99949092   0.95299039    29.842405    56942.656   0.62940514    31.356518 
13666000    1.0018179    1.0040268    29.854404    56943.814   0.62939234    31.449636 
13668000   0.99833079   0.98381597    29.846613    56944.102   0.62938915    31.409741 
13670000   0.99865346   0.97707669    29.857123    56946.656   0.62936092    31.409614 
13672000   0.99633275    1.0267078     29.84922     56939.16   0.62944378    31.480355 
13674000    1.0028539   0.98110925    29.848664    56951.457   0.62930786    31.407693 
13676000    1.0011336   0.99483233    29.849254    56956.768   0.62924918    31.430237 
13678000    1.0009314   0.96197084    29.858662    56947.942   0.62934671    31.387185 
13680000   0.99671729    1.0444331    29.850283    56950.804   0.62931509    31.509917 
13682000   0.99877468    1.0125127    29.849467    56958.245   0.62923287    31.458589 
13684000     1.000775     1.099916    29.852004    56960.255   0.62921067    31.600093 
13686000   0.99527533    1.0081594    29.850458    56952.948   0.62929139    31.452513 
13688000    0.9945829    1.0476938      29.8384    56941.208   0.62942114    31.502935 
13690000   0.99472438    1.0110135    29.838329    56919.588   0.62966022    31.443979 
13692000   0.99426732   0.98784388    29.838342    56914.082   0.62972113    31.407043 
13694000   0.99753004   0.92907034    29.846516    56909.756   0.62976899    31.321772 
13696000   0.99989533    1.0426935    29.851384     56903.51   0.62983812    31.506878 
13698000   0.99297356    0.9939923    29.843885    56908.652   0.62978122    31.422199 
13700000   0.99921232    1.0461297    29.841963    56915.721   0.62970299    31.503269 
13702000   0.99335229    1.0005548      29.8439    56921.264   0.62964168    31.432986 
13704000   0.99314551     1.051334    29.836242    56912.481   0.62973884    31.505718 
13706000   0.99248513   0.99155806    29.843582    56914.252   0.62971925    31.418186 
13708000    1.0006138   0.97420663     29.84799    56914.568   0.62971575    31.395048 
13710000    1.0012422     0.984989    29.851825    56920.219   0.62965324    31.416161 
13712000   0.99929292   0.99746029    29.853115    56928.663   0.62955984    31.437492 
13714000    1.0002225   0.92360026    29.852549    56918.151   0.62967611    31.319336 
13716000   0.99927791     1.060784    29.847876    56905.091   0.62982062     31.53214 
13718000    0.9945258    1.0437704    29.852162    56903.379   0.62983957    31.509363 
13720000   0.99849929   0.99839379    29.852468    56894.294   0.62994015    31.437371 
13722000    1.0013255    1.0271943    29.849025    56898.085   0.62989818    31.479755 
13724000   0.99723444   0.99252206    29.847703    56901.504   0.62986033    31.423484 
13726000    1.0015284   0.97976271    29.858766    56905.816    0.6298126    31.414408 
13728000   0.99796145   0.93417381    29.856314    56914.853   0.62971259    31.339807 
13730000   0.99616215    1.0405517    29.844908    56913.479    0.6297278    31.497291 
13732000   0.99832769   0.98552675    29.839692    56914.054   0.62972144    31.404713 
13734000   0.99785913    1.0835426    29.852952    56916.921   0.62968972    31.573708 
13736000    1.0010253    1.0148388    29.851713    56930.019   0.62954485    31.463733 
13738000    1.0039389   0.97878783    29.844096    56928.516   0.62956147     31.39881 
13740000   0.99805549    1.0646846    29.847103    56924.941     0.629601    31.538149 
13742000    1.0000638    1.0250274    29.843535    56923.006   0.62962241    31.471539 
13744000   0.99619109     1.013759    29.841008      56921.7   0.62963685    31.451078 
13746000   0.99784514    1.0240922    29.839128    56921.689   0.62963698    31.465609 
13748000   0.99715625    1.0233617    29.845212    56924.105   0.62961025    31.470601 
13750000   0.99482707   0.98679183    29.841129    56916.631   0.62969293    31.408229 
13752000   0.99495543    1.0066033    29.836681    56903.449    0.6298388    31.434873 
13754000   0.99596472     1.027588    29.848572    56904.789   0.62982396     31.48012 
13756000   0.99718403    1.0422361    29.850307    56911.897    0.6297453    31.505319 
13758000   0.99767298    1.0259887    29.845993    56913.728   0.62972504    31.475257 
13760000   0.99354841   0.95900503    29.842543    56912.934   0.62973383    31.365417 
13762000   0.99734382   0.97729372    29.840565     56903.93   0.62983347    31.392236 
13764000   0.99300014   0.95071294    29.836074    56905.116   0.62982034    31.345572 
13766000   0.99386817    1.0432869    29.841337    56896.941   0.62991084    31.497582 
13768000   0.99364465    1.0352236    29.840555    56892.575   0.62995918    31.483874 
13770000   0.99850259   0.97790175     29.83982    56901.247   0.62986317    31.392382 
13772000   0.99713153   0.94091703    29.849659    56903.412   0.62983921    31.343559 
13774000   0.99610792   0.94882238    29.841195    56897.041   0.62990973    31.347478 
13776000    1.0043379    1.0112298    29.852777    56905.787   0.62981292     31.45838 
13778000    1.0032926   0.97306029    29.853889    56914.529   0.62971619    31.399125 
13780000   0.99455658   0.91371603    29.844699    56919.324   0.62966313    31.295818 
13782000   0.99904098   0.98419618    29.846563    56933.341   0.62950811        31.41 
13784000    1.0001344    1.0052961    29.845927    56933.031   0.62951154    31.442873 
13786000   0.99580398   0.98063497    29.843668     56951.47   0.62930773    31.401944 
13788000   0.99404416   0.97891127    29.845331    56958.742   0.62922738    31.401066 
13790000   0.99628722    1.0067911    29.848304    56960.268   0.62921052    31.448391 
13792000     1.004404    1.0046453    29.847303    56974.307   0.62905548    31.444373 
13794000   0.99151142   0.97788882     29.84841     56963.53   0.62917449    31.402651 
13796000   0.99593689    1.0234485    29.840177    56952.612    0.6292951    31.466518 
13798000   0.99612422    1.0247815    29.838335     56939.31   0.62944212    31.466414 
13800000   0.99427864    1.0427028      29.8434     56940.72   0.62942653    31.499992 
13802000   0.99357985   0.99161573    29.842143    56926.559    0.6295831    31.417179 
13804000   0.99923492    1.0220027    29.841231    56924.594   0.62960484    31.464476 
13806000    1.0008907   0.97411457      29.8419    56923.275   0.62961943    31.389048 
13808000    1.0031268   0.95525244     29.85005    56920.361   0.62965166    31.367162 
13810000   0.99700777   0.96811718    29.842914     56925.03   0.62960002    31.380585 
13812000    0.9940728    1.0534552     29.83621    56921.548   0.62963853    31.509321 
13814000    1.0008667    0.9710691    29.845673    56931.315   0.62953052    31.388202 
13816000   0.99693427   0.99531687     29.84429    56940.788   0.62942578    31.425599 
13818000   0.99795603   0.96576289    29.840267    56936.279   0.62947563    31.374501 
13820000   0.99585029    1.0349955    29.843659    56934.238    0.6294982    31.487818 
13822000   0.99929143   0.90642849    29.838637    56931.035   0.62953361    31.278478 
13824000   0.99700891   0.95708635    29.841752    56925.008   0.62960027    31.361901 
13826000    1.0024828    1.0016372    29.842171    56925.634   0.62959334    31.433098 
13828000    0.9956454   0.96057536    29.845394    56926.228   0.62958677    31.371117 
13830000    1.0037556   0.95820351    29.848047    56932.632   0.62951595    31.370174 
13832000    0.9958546   0.96674082    29.849748    56927.662   0.62957091    31.385303 
13834000    1.0025585   0.99114308    29.847122    56934.833   0.62949162    31.421635 
13836000   0.99401446    1.0058671    29.843157    56946.383   0.62936394    31.441385 
13838000   0.99739894    1.0081144    29.839809    56945.966   0.62936854    31.441596 
13840000   0.99498633   0.98692081    29.830668     56941.59   0.62941692     31.39866 
13842000   0.99751698    1.0359307    29.838718    56938.667   0.62944922    31.484491 
13844000    1.0015122    1.0316434    29.842899    56938.563   0.62945038    31.481858 
13846000   0.99238082   0.98355065    29.841873    56922.032   0.62963318    31.403974 
13848000   0.99994071   0.95254936    29.845226    56928.568   0.62956089    31.358264 
13850000    1.0008375   0.98977654    29.851703    56935.514   0.62948409    31.424064 
13852000   0.99650284   0.94761054    29.841087    56937.035   0.62946727    31.346504 
13854000   0.99702368     1.040237    29.844612    56935.123   0.62948841    31.497124 
13856000   0.99842669    1.0567816    29.846961    56943.237   0.62939871    31.525994 
13858000   0.99659501    1.0158403    29.842426    56936.556   0.62947257    31.456222 
13860000    0.9977947   0.94521937    29.851776    56938.469   0.62945142    31.353431 
13862000   0.99135839    1.0004596    29.844301    56933.431   0.62950712    31.433576 
13864000   0.99664635   0.97885861    29.842084    56932.556   0.62951679    31.397021 
13866000   0.99834179   0.92869788    29.850229    56936.688    0.6294711    31.325592 
13868000    1.0065377    1.0085736    29.861185    56945.178   0.62937725     31.46368 
13870000    1.0018359    1.0179148    29.855001    56949.084   0.62933409    31.472449 
13872000    1.0058923    1.0450371    29.856379      56961.9   0.62919249    31.517297 
13874000    1.0021366    1.0489805    29.850404    56959.225   0.62922205    31.517511 
13876000   0.99817604   0.98048202    29.851572    56956.689   0.62925006    31.409748 
13878000   0.99767593   0.97575192     29.85161    56946.922   0.62935798    31.402003 
13880000   0.99873735    1.0095092    29.841607    56949.052   0.62933445    31.445697 
13882000   0.99502161    1.0154976    29.841761    56954.044   0.62927929    31.455508 
13884000     1.002962   0.97983727    29.855596    56958.874   0.62922592    31.412807 
13886000     1.002104    1.0021234    29.854759    56956.855   0.62924822    31.447332 
13888000   0.99894699    1.0020275    29.854821    56961.406   0.62919795    31.447369 
13890000   0.99923003    1.0106279    29.851298    56964.697   0.62916161    31.457607 
13892000   0.99694501   0.92426789    29.840786    56958.946   0.62922512    31.309684 
13894000    0.9922069    1.0409345    29.839095    56940.292   0.62943127    31.492865 
13896000   0.99450952    1.0343133    29.837638     56933.36    0.6295079    31.480689 
13898000   0.99580875    1.0025725    29.826427    56928.695   0.62955949    31.418926 
13900000   0.99300157   0.98543548    29.838257    56923.272   0.62961946    31.403385 
13902000    0.9925612   0.96960356       29.835    56917.279   0.62968576    31.374822 
13904000    1.0039884    1.0289257    29.850756    56903.126   0.62984237     31.48438 
13906000   0.99451699   0.99247504    29.848092    56903.266   0.62984083    31.423848 
13908000   0.99616613    1.0466907    29.839972    56898.882   0.62988936    31.501678 
13910000   0.99854064    1.0034715    29.846038    56898.096   0.62989805    31.439108 
13912000   0.98672819   0.96097905    29.835088    56887.823    0.6300118    31.360423 
13914000   0.99327506   0.99553603     29.82886    56881.623   0.63008047    31.408874 
13916000   0.99810317    1.0317365    29.835191    56887.669   0.63001351    31.472832 
13918000   0.99540588    1.0482833    29.842804     56883.95    0.6300547    31.506601 
13920000   0.99450562     1.000117    29.841516    56881.434   0.63008257    31.428796 
13922000     1.000271   0.97006766    29.839853    56888.964   0.62999917    31.379645 
13924000   0.99666972   0.96813829    29.840294    56898.427   0.62989439    31.377279 
13926000   0.99736646   0.99386242     29.84459    56902.299   0.62985153    31.422521 
13928000   0.99613727   0.92756322    29.852123    56913.779   0.62972448    31.325089 
13930000   0.99759463   0.99159324    29.849466    56914.002   0.62972202    31.424118 
13932000   0.99946567    1.0138722    29.844018    56906.112   0.62980932    31.453826 
13934000   0.99468582    1.0138225    29.833365    56899.871    0.6298784    31.442918 
13936000   0.99251377   0.98396741    29.839819    56896.683    0.6299137    31.401886 
13938000   0.99827094    1.0238901     29.84099    56890.158   0.62998595    31.466249 
13940000    1.0019729   0.97006556    29.850059    56885.219   0.63004065    31.389746 
13942000   0.99412851    1.0188777    29.852877     56894.93   0.62993311    31.470315 
13944000   0.99530347    0.9413972    29.852878    56884.329    0.6300505     31.34704 
13946000   0.99998973      1.05016    29.845875    56890.091   0.62998668    31.512831 
13948000    1.0047854    1.0308835    29.849851    56904.217    0.6298303    31.486615 
13950000     1.001451   0.98863715    29.856809    56903.506   0.62983817    31.426477 
13952000   0.99691042    1.0218792    29.858544    56920.518   0.62964992    31.481477 
13954000    1.0029249   0.99731127    29.853371    56919.254   0.62966391     31.43725 
13956000     1.000316   0.99547336    29.847764    56924.905   0.62960141     31.42888 
13958000    1.0003112   0.95207543    29.848029    56929.227    0.6295536    31.360331 
13960000   0.99674938   0.97402386    29.840515    56923.789   0.62961375    31.387533 
13962000    0.9940138    1.0379647    29.844378     56922.08   0.62963264    31.492902 
13964000   0.99895819    1.0330294    29.837917     56917.72   0.62968088    31.478477 
13966000    1.0003458   0.95268236    29.849079    56926.868   0.62957969    31.362282 
13968000   0.99524873    1.0507058    29.836423    56939.847   0.62943618    31.505704 
13970000   0.98701125    1.0056354    29.832491    56934.854   0.62949138    31.430027 
13972000   0.99747635   0.96523707    29.834416    56929.919   0.62954596    31.367643 
13974000   0.99063763    1.0003722      29.8289    56922.377   0.62962936    31.417727 
13976000    0.9943003   0.98078737    29.839461    56908.509    0.6297828    31.396804 
13978000   0.99551039    1.0065626    29.840169    56906.931   0.62980026    31.438394 
13980000   0.99778249   0.94046185    29.839886    56905.718   0.62981368    31.333124 
13982000     1.001968    1.0741423    29.845903    56917.871   0.62967921     31.55176 
13984000   0.99610185    1.0429979    29.847353    56918.182   0.62967577    31.503758 
13986000   0.99439325   0.99301628    29.846385    56914.494   0.62971657    31.423311 
13988000    0.9995199   0.98182083    29.835938     56904.02   0.62983248    31.394798 
13990000   0.99356121   0.98279235    29.845176    56897.919   0.62990002    31.405411 
13992000   0.99656494   0.99793101     29.83518    56890.546   0.62998164    31.419244 
13994000   0.99292187   0.98490488    29.836113    56881.591   0.63008083    31.399254 
13996000   0.99554121    1.0029674    29.843308    56896.738   0.62991309     31.43554 
13998000    0.9965596   0.96157096    29.836699    56892.636    0.6299585    31.363102 
14000000   0.99639022    1.0281784     29.83673     56894.11   0.62994218    31.468909 
14002000   0.99512009   0.99709181    29.832444     56894.98   0.62993256    31.415299 
14004000    1.0003862    0.9709891    29.836803    56898.418    0.6298945    31.378314 
14006000   0.99892466   0.97465477    29.840311    56899.192   0.62988593    31.387662 
14008000   0.99292158    1.0410571    29.839168    56908.902   0.62977844    31.492221 
14010000   0.99468077   0.98263653    29.840849    56909.868   0.62976776    31.401164 
14012000   0.99623166   0.96539843    29.834699    56900.465   0.62987183    31.367389 
14014000   0.99195994    1.0322224    29.835289    56891.781   0.62996797     31.47382 
14016000    0.9967759    1.0105349    29.833542    56892.069   0.62996478    31.437656 
14018000    1.0013938   0.99261664    29.844479     56898.81   0.62989015    31.420336 
14020000    1.0008657    1.0108359    29.853113    56906.873    0.6298009    31.458122 
14022000    1.0019735   0.99431027    29.851809    56922.588   0.62962703    31.431014 
14024000    1.0040536    1.0257183    29.854094    56943.068   0.62940058    31.483769 
14026000    1.0041284    1.0191784    29.859589    56951.166   0.62931109    31.479103 
14028000    1.0039333    1.0197001    29.861809     56954.48   0.62927446    31.482246 
14030000    1.0013979   0.97101381    29.853528    56957.715   0.62923872    31.396684 
14032000    0.9962892    1.0465987    29.851248    56953.148   0.62928918    31.514392 
14034000    1.0005703    1.0086214    29.858313    56958.165   0.62923376    31.461249 
14036000    1.0014346   0.98027664    29.860276    56947.574   0.62935078    31.417876 
14038000    1.0027916    0.9827248    29.860912    56950.483   0.62931863    31.422482 
14040000    1.0035712   0.97421367    29.855179    56949.685   0.62932745    31.403202 
14042000    1.0000345   0.99850447     29.85595    56953.603   0.62928416    31.442681 
14044000    1.0024553   0.99477815    29.854486    56953.346   0.62928699    31.435288 
14046000     1.001268   0.97759692     29.85586    56964.959   0.62915871    31.409677 
14048000    1.0096959   0.96988385    29.863349    56981.379    0.6289774     31.40535 
14050000    0.9967534    1.0186311    29.858452    56982.964   0.62895991       31.478 
14052000    1.0023518    0.9828302    29.858422    56983.366   0.62895547    31.421061 
14054000   0.99856632   0.97756035    29.853162     56976.72   0.62902883     31.40724 
14056000    1.0090184    1.0055891    29.853757    56973.348   0.62906607      31.4523 
14058000    1.0118561   0.98931061     29.86604    56970.489   0.62909764    31.438627 
14060000    1.0112257    1.0050593    29.865726    56982.074   0.62896973    31.463671 
14062000    1.0034779    1.0037232    29.862138    56990.789   0.62887355    31.458204 
14064000    1.0009522    1.0354997    29.858521    56992.286   0.62885703    31.505159 
14066000    1.0057911    1.0178888    29.863961    56991.255   0.62886841    31.482565 
14068000    1.0011024   0.98352262     29.86505    56986.246   0.62892369    31.428869 
14070000    1.0060938   0.98656159    29.869528    56978.668   0.62900733     31.43797 
14072000    1.0066307   0.98026395    29.864839    56983.756   0.62895117    31.423408 
14074000    1.0069252     1.026595     29.86827    56993.849   0.62883979    31.500792 
14076000    1.0108087    1.0345382    29.864666    56997.942   0.62879463    31.509938 
14078000    1.0086258   0.95684421    29.870138    57001.952   0.62875039    31.391957 
14080000    1.0071936   0.96954727    29.872018    57017.329   0.62858083    31.414457 
14082000     1.008297    1.0732612    29.865479    57018.672   0.62856602    31.572955 
14084000    1.0064834    1.0015469    29.865337    57021.177   0.62853841     31.45879 
14086000    1.0101951    1.0446628    29.864318    57028.104   0.62846206     31.52657 
14088000    1.0030906   0.97897166    29.864301    57025.656   0.62848905     31.42196 
14090000     1.000589    1.0635123    29.855916      57017.7   0.62857674    31.547853 
14092000     1.003185   0.99035669     29.85577    57022.092   0.62852833    31.431446 
14094000    1.0046454    1.0029933    29.865289    57013.477    0.6286233    31.460828 
14096000    1.0099596    1.0427596    29.868762    57012.004   0.62863954    31.527518 
14098000    1.0045492     1.033833    29.868313    57008.191   0.62868159    31.512759 
14100000    1.0092983   0.98406076    29.863239    57026.461   0.62848017    31.429017 
14102000    1.0015879    1.0292013    29.861447     57026.56   0.62847908    31.499054 
14104000    1.0022885   0.98300376    29.863972    57019.449   0.62855746    31.427877 
14106000    1.0033852    1.0199253    29.859803    57010.867   0.62865208    31.482203 
14108000    1.0089848   0.98034999    29.864228    57011.233   0.62864804    31.423686 
14110000    1.0005903   0.99609895    29.858761    57006.744   0.62869755    31.443146 
14112000   0.99981922    1.0329157    29.854618    56996.608   0.62880934    31.497272 
14114000    1.0024048    1.0028847    29.851542    56990.727   0.62887424    31.446272 
14116000    1.0005911    1.0173608    29.849911    56982.444   0.62896565    31.467426 
14118000   0.99821467    1.0503616    29.851622    56982.426   0.62896585    31.521604 
14120000    1.0069859    1.0390122    29.861634    56985.916   0.62892733    31.513672 
14122000    1.0060447   0.99172826     29.86686    57000.122   0.62877059    31.444109 
14124000    1.0079285   0.93657415      29.8628    57006.737   0.62869762    31.352505 
14126000    1.0050992      1.02728    29.860479    57013.808   0.62861965    31.494663 
14128000     1.004237   0.96875281    29.853373    57005.948   0.62870632     31.39424 
14130000    1.0028614    1.0028484    29.860897    57000.924   0.62876174    31.455854 
14132000    1.0003616   0.95144593    29.858044    56996.105    0.6288149    31.371122 
14134000   0.99835705   0.96630652    29.852211     56992.71   0.62885236     31.38883 
14136000   0.99919333    1.0605583    29.843994    56985.039   0.62893701    31.530265 
14138000   0.99499878    1.0362634    29.855496    56982.598   0.62896396    31.503068 
14140000    1.0041022   0.97346925    29.863619    56982.592   0.62896402    31.411354 
14142000     1.005984   0.98143155    29.856199    56989.221   0.62889086    31.416775 
14144000    1.0005484    1.0170381    29.851393    56979.036   0.62900327    31.468297 
14146000     1.004675   0.97608928    29.857873    56971.731   0.62908392    31.409477 
14148000    1.0032662    1.0197567    29.853866    56974.291   0.62905565    31.474958 
14150000    1.0050367   0.97539853    29.861383    56982.365   0.62896652    31.412178 
14152000    1.0054855   0.95949402    29.858167    56977.061   0.62902507    31.383534 
14154000    0.9998181   0.93384215    29.858291    56978.762    0.6290063    31.342922 
14156000   0.99494132    1.0841876     29.84562     56974.09   0.62905788     31.56913 
14158000   0.99775191   0.95603791    29.847415    56965.215   0.62915588    31.366971 
14160000   0.99894816   0.95976606     29.84863    56967.167   0.62913433    31.374164 
14162000   0.99846124    1.0349823    29.844871      56968.8   0.62911629    31.490008 
14164000   0.99692313    1.0036934    29.845381    56968.527    0.6291193    31.440776 
14166000    1.0047585    1.0374513    29.853159    56963.699   0.62917263    31.502073 
14168000    1.0026586   0.96050821    29.841384    56969.989   0.62910316    31.368174 
14170000    1.0027788    0.9987373    29.844038    56965.789   0.62914954    31.431478 
14172000   0.99916431    1.0138516    29.849917    56957.179   0.62924465    31.461137 
14174000    1.0044121   0.97520152    29.849034    56959.674   0.62921708    31.398899 
14176000   0.99464302   0.97467703    29.841772    56951.583   0.62930647    31.390584 
14178000    1.0009181    0.9821919    29.844528    56947.751   0.62934882    31.405176 
14180000    1.0054685    1.0796446    29.840543    56940.525   0.62942869     31.55582 
14182000    1.0038377    1.0316824    29.859403     56932.25   0.62952018    31.498242 
14184000    1.0001595    1.0519533    29.846454    56944.832   0.62938108    31.517864 
14186000    1.0016774    1.0318214    29.851119    56949.586   0.62932854    31.490678 
14188000    1.0037483    1.0586105     29.85614    56955.413   0.62926416    31.538439 
14190000    1.0002026   0.93939501    29.852253    56955.921   0.62925854    31.345113 
14192000   0.99857902    1.0118841    29.853865     56960.94    0.6292031    31.462064 
14194000   0.99356131   0.98334553    29.849124    56963.852   0.62917093    31.412047 
14196000   0.99494122    1.0388218    29.844734    56957.798   0.62923781    31.495655 
14198000   0.99561604   0.97379699    29.848083     56959.17   0.62922266    31.395702 
14200000     1.001958    1.0170018    29.849015    56944.989   0.62937935    31.464896 
14202000    1.0000046    1.0169929    29.842104    56931.038   0.62953358    31.457575 
14204000   0.99873535   0.94160674    29.840386    56920.497   0.62965016     31.33583 
14206000   0.99367046   0.99066561     29.85001    56912.471   0.62973896    31.423147 
14208000   0.99846714   0.97591513    29.845296    56906.688   0.62980295    31.394852 
14210000   0.99961465    1.0061677    29.840494    56919.493   0.62966127    31.438445 
14212000   0.99963475    1.0082389    29.840951    56924.008   0.62961132    31.442318 
14214000   0.99525878    1.0026673    29.843074    56924.257   0.62960857    31.435599 
14216000   0.99650048    1.0513756    29.844596    56910.074   0.62976548    31.514067 
14218000    1.0056469    1.0335485    29.857556    56907.408   0.62979498    31.498643 
14220000     1.000489    1.0036441    29.853224    56916.299   0.62969661    31.447077 
14222000   0.99612293    1.0124157    29.846941    56914.028   0.62972173    31.454661 
14224000   0.99488245    1.0046273    29.841707     56917.25   0.62968608    31.437149 
14226000   0.99466271    1.0675731    29.844876    56922.625   0.62962662    31.540442 
14228000     1.000669   0.96195436    29.851786    56921.367   0.62964054    31.379569 
14230000    0.9960319   0.99288009     29.84294    56929.615   0.62954932    31.420068 
14232000   0.99798046   0.98727708    29.852743    56938.396   0.62945222    31.421213 
14234000   0.99795352    1.0254908    29.855275    56945.937   0.62936886    31.484671 
14236000    1.0050142   0.95796738    29.856222    56956.181   0.62925568    31.378604 
14238000   0.99808742     1.097179    29.850949    56955.067   0.62926798    31.594529 
14240000    1.0003187    1.0176778    29.847499    56964.681   0.62916178    31.465013 
14242000    1.0030181    1.0189568    29.855344    56965.456   0.62915322    31.474912 
14244000    1.0010795    1.0091163    29.854435    56975.703   0.62904006    31.458652 
14246000    1.0024202   0.98075556    29.849696    56977.299   0.62902244    31.408871 
14248000    1.0001452   0.98986843    29.845154    56977.547   0.62901971    31.418822 
14250000    1.0009891    1.0315692    29.845382    56974.507   0.62905327    31.485258 
14252000   0.99293505   0.98558123    29.837376    56968.405   0.62912065    31.403978 
14254000   0.99726772     1.021199    29.841688    56958.149   0.62923393    31.464612 
14256000   0.99909004    1.0196654    29.843244    56952.658   0.62929459    31.463575 
14258000   0.99271757    1.0344411    29.843695    56950.311   0.62932054    31.487438 
14260000   0.99634641   0.98150439    29.843508    56946.773   0.62935963    31.403037 
14262000    0.9951772    0.9155353    29.848187    56934.518    0.6294951    31.302583 
14264000   0.99824661   0.95020611    29.847666    56937.068    0.6294669    31.357207 
14266000   0.99505206   0.99868236    29.850488    56933.831    0.6295027     31.43695 
14268000   0.99309264   0.99672177    29.843823    56936.712   0.62947085    31.427251 
14270000   0.99796311   0.94203142    29.847759    56937.361   0.62946366    31.344321 
14272000   0.99533916    1.0481953     29.85023     56931.37    0.6295299    31.515275 
14274000   0.99816033   0.98032135    29.848658    56939.929   0.62943528     31.40612 
14276000   0.99299713    0.9985657    29.841579    56934.513   0.62949515    31.427875 
14278000   0.99543394    1.0436822     29.83871    56928.705   0.62955938    31.496508 
14280000   0.99830825   0.98647444     29.83872    56927.497   0.62957274    31.405615 
14282000   0.99554143   0.98188373    29.836415    56928.703    0.6295594    31.396051 
14284000    1.0008974    1.0039188    29.849092    56935.294   0.62948651    31.443914 
14286000   0.99902427    1.0019396    29.847741    56946.109   0.62936697    31.439721 
14288000   0.99842117    1.0052461    29.845284     56952.51   0.62929623    31.442698 
14290000   0.99451105   0.99124144    29.838893    56952.724   0.62929386    31.414058 
14292000   0.99131107    1.0028233    29.838565    56948.956   0.62933551    31.432029 
14294000   0.99726446   0.98139798    29.847811    56945.761   0.62937081    31.407142 
14296000    1.0009016    0.9613155    29.850248    56945.922   0.62936903    31.377675 
14298000    1.0016363    1.0237688    29.845166    56945.574   0.62937288    31.471815 
14300000   0.99794585   0.98216515    29.848938    56956.764   0.62924923     31.40979 
14302000   0.99685235   0.98256393    29.844001    56949.818   0.62932598    31.405296 
14304000    1.0003239    1.0097638    29.847896    56965.484   0.62915291    31.452854 
14306000   0.99851711    1.0223982    29.857263    56976.157   0.62903505    31.482606 
14308000    1.0007979   0.94975524    29.859656    56976.601   0.62903015    31.369528 
14310000   0.99845375    1.0455419    29.848682    56993.998   0.62883815    31.511339 
14312000    1.0018655   0.97451122    29.861809    56997.949   0.62879456    31.411618 
14314000    1.0040543    1.0337252    29.850346    57003.227   0.62873633    31.494477 
14316000    1.0016349   0.96334056    29.855796    57003.892     0.628729    31.387999 
14318000   0.99767522    0.9999294     29.84524    56993.916   0.62883905     31.43536 
14320000   0.99054354    1.0030901    29.837708    56989.437   0.62888847    31.432729 
14322000   0.99238464   0.98663552    29.845193    56976.614      0.62903    31.413696 
14324000   0.99242741   0.98845396    29.846032    56969.447   0.62910914    31.417228 
14326000   0.99776781   0.99567884    29.841914    56959.688   0.62921693    31.424324 
14328000   0.99244325   0.97701348    29.847901    56954.681   0.62927224     31.40051 
14330000   0.99329341    0.9968159    29.841983    56942.591   0.62940586    31.425724 
14332000   0.99798447    1.0061139    29.843378    56931.257   0.62953115    31.441574 
14334000   0.99997671    1.0103587      29.8428    56919.853   0.62965728    31.447417 
14336000   0.99823711     1.032352    29.848082    56919.392   0.62966238    31.487615 
14338000    1.0009884    1.0981048    29.849372    56918.519   0.62967205    31.593303 
14340000   0.99295931     1.065303    29.843993    56916.079   0.62969903    31.535759 
14342000   0.99459577   0.99695076    29.845283    56912.476    0.6297389      31.4284 
14344000    1.0011749   0.93573154    29.856796    56915.986   0.62970007    31.342792 
14346000   0.99577557    1.0180871    29.852779    56924.927   0.62960116    31.469814 
14348000      1.00349    1.0215155    29.856503    56930.665    0.6295377    31.479147 
14350000     1.003381   0.87805773    29.854212    56937.842   0.62945835    31.249153 
14352000    1.0037654     1.050938    29.858393    56943.909   0.62939128    31.528162 
14354000    1.0004436   0.96515982    29.853471    56952.727   0.62929384     31.38719 
14356000    1.0024408     1.008108    29.865094    56952.016   0.62930169    31.467041 
14358000    1.0000282   0.99705874    29.854274    56954.795   0.62927099     31.43874 
14360000     1.001022   0.91456426    29.850986    56959.257   0.62922169    31.304471 
14362000    1.0038654   0.99176776    29.848494    56962.954   0.62918086    31.424778 
14364000   0.99892523   0.97290216    29.854545    56962.511   0.62918575    31.400833 
14366000   0.99461801   0.98794295    29.848538    56954.076   0.62927893    31.418499 
14368000   0.99623465    1.0101809    29.846048    56948.732   0.62933798    31.451197 
14370000    1.0014553   0.94029501    29.848045    56948.197    0.6293439    31.342133 
14372000   0.99775815    1.0434383    29.848474    56956.095   0.62925663    31.506682 
14374000    1.0001326   0.97940236    29.850409    56955.188   0.62926664    31.406827 
14376000    1.0036901    1.0355544    29.857749    56949.604   0.62932835     31.50324 
14378000    1.0031368    1.0038255    29.856935    56945.071   0.62937844    31.451883 
14380000    1.0050504   0.99737121    29.858279    56951.583   0.62930647    31.443152 
14382000   0.99831034    0.9942123    29.856973    56957.719   0.62923868    31.436998 
14384000    1.0016346    1.0317904    29.851065    56951.974   0.62930216    31.490644 
14386000     1.000734   0.96944023    29.855445    56968.563    0.6291189    31.396394 
14388000    1.0001135   0.97179366    29.856947    56976.286   0.62903363    31.401847 
14390000     1.003561    1.0760167    29.850309    56970.292   0.62909982    31.560716 
14392000   0.99801294    1.0242759    29.849653    56966.294   0.62914396      31.4777 
14394000    1.0049009    1.0132905    29.860128    56955.613   0.62926195    31.470412 
14396000     1.004407      1.03451    29.861535    56964.477   0.62916404    31.505796 
14398000    1.0087051   0.97334797    29.861056    56977.316   0.62902226    31.408455 
14400000   0.99958234    1.0057558    29.867477    56969.872   0.62910445    31.466188 
14402000    1.0055522   0.99461361    29.867888    56973.019    0.6290697    31.448974 
14404000     1.008652    1.0209881     29.85719    56992.721   0.62885224    31.480763 
14406000    1.0024143   0.92486054    29.861754    56999.347   0.62877914    31.332637 
14408000    1.0007426    1.0148395    29.863974    56997.472   0.62879982    31.477905 
14410000    1.0042429    1.0163624    29.852412    56998.071    0.6287932    31.468782 
14412000    1.0028083    1.0391908    29.854641    56997.263   0.62880212    31.507292 
14414000    1.0048761    1.0117136    29.862844    57003.959   0.62872826    31.471987 
14416000    1.0019285    1.0065436    29.858379    57010.818   0.62865262    31.459491 
14418000   0.99940614   0.97028165    29.850881    57008.031   0.62868336    31.394236 
14420000   0.99138803    1.0073135    29.842705    57002.717   0.62874196    31.444814 
14422000   0.99445757   0.97970735    29.846597    56990.874   0.62887262    31.404475 
14424000    1.0016934    1.0228894    29.850213     56984.06   0.62894782    31.476564 
14426000   0.99564203   0.98259543    29.849376    56978.089   0.62901373    31.411497 
14428000   0.99316101    1.0344746    29.841206    56969.384   0.62910984    31.485553 
14430000   0.99668325    1.0311736    29.847053    56952.601   0.62929523     31.48567 
14432000   0.99773391   0.98743679    29.839783    56951.091   0.62931191    31.408857 
14434000   0.99832969    1.0391857     29.84374    56934.361   0.62949683     31.49456 
14436000   0.99656495    1.0219649     29.84325    56939.204   0.62944329    31.466851 
14438000   0.99656188    1.0505764    29.838848    56952.181   0.62929986    31.508285 
14440000   0.99464258   0.95613671    29.833879    56939.778   0.62943694    31.352914 
14442000   0.99070556   0.94840599    29.825407    56932.267   0.62951999    31.331962 
14444000   0.99088854   0.90633579    29.841738    56909.004   0.62977732    31.280875 
14446000   0.99360315    1.0228076    29.831183    56901.909   0.62985585    31.455059 
14448000     0.993485     1.029153    29.835005    56898.626   0.62989218     31.46886 
14450000   0.99400289   0.90966644    29.835709    56894.812   0.62993441    31.279774 
14452000   0.99885375    1.0176204    29.842629    56898.229   0.62989658    31.458165 
14454000   0.99580125   0.91829154    29.832668    56898.224   0.62989664    31.290513 
14456000   0.99048307    1.0398831     29.83359    56900.389   0.62987267    31.484532 
14458000   0.99152947    1.0034636    29.829428    56881.979   0.63007653    31.422034 
14460000   0.99047186    1.0375492    29.828896     56859.22   0.63032873    31.474941 
14462000   0.99208467   0.95567493    29.836055     56850.16   0.63042918    31.351966 
14464000   0.99037634    1.0198446    29.833693    56852.781   0.63040012    31.451467 
14466000   0.99357823   0.95115685    29.832546    56849.683   0.63043447    31.341278 
14468000   0.98919711    1.0348669    29.829175    56848.985   0.63044221    31.470669 
14470000   0.99069513    1.0158314    29.820942    56843.189    0.6305065    31.432078 
14472000   0.99312766    1.0501452    29.834154    56848.962   0.63044247    31.499881 
14474000   0.99961282   0.99922147     29.83757    56852.526   0.63040294    31.422623 
14476000    0.9956292    1.0063472    29.839148    56859.478   0.63032587    31.435699 
14478000    1.0022872   0.97054557    29.852806    56866.615   0.63024676    31.392751 
14480000   0.99840719   0.97725296    29.849022    56875.661   0.63014652    31.399857 
14482000   0.99717583   0.95772121    29.850548    56886.444   0.63002708    31.370675 
14484000    1.0041009    1.0432059    29.851803    56887.243   0.63001823    31.507638 
14486000    1.0017977   0.95433535    29.852359    56906.728    0.6298025    31.367652 
14488000    1.0006664    1.0001786    29.855765     56917.57   0.62968253     31.44415 
14490000    1.0056495   0.96529392    29.857799    56918.364   0.62967376    31.390805 
14492000    1.0058149    0.9852642    29.860596    56940.542    0.6294285    31.425927 
14494000   0.99513992      1.00826    29.851016        56944   0.62939028    31.452979 
14496000    1.0009435    1.0400763    29.852069    56946.723   0.62936018    31.504662 
14498000    1.0067975    1.0148726    29.854826    56954.728   0.62927172    31.467599 
14500000    1.0006729    1.0039602    29.854804    56959.493   0.62921908     31.45037 
14502000    1.0076626    1.0368276    29.855714    56960.689   0.62920587    31.503549 
14504000    1.0080871   0.87884022    29.863554    56969.815   0.62910508    31.260523 
14506000   0.99899312     1.050535     29.86243    56972.535   0.62907504    31.532398 
14508000   0.99929692   0.98044192    29.860102    56985.219   0.62893503    31.418994 
14510000    1.0067212   0.98912531    29.858529     56994.28   0.62883503    31.431478 
14512000    1.0023479    1.0133782    29.859855     57005.19   0.62871468     31.47168 
14514000   0.99906659    1.0091504    29.853186    57004.341   0.62872404    31.458262 
14516000    1.0020822    1.0379072    29.855732    57016.926   0.62858528    31.506911 
14518000    1.0025832   0.91436142     29.85266    57004.067   0.62872707    31.306966 
14520000   0.99562781     1.004148    29.850335    57001.054    0.6287603    31.447363 
14522000    1.0006054   0.96767656    29.844001    56987.804   0.62890649    31.382666 
14524000   0.99280743   0.94501492    29.840103    56971.565   0.62908576    31.342307 
14526000   0.99616724    1.0005101    29.840921    56960.586   0.62920701    31.431034 
14528000   0.99523858    1.0394441    29.841918    56941.545   0.62941742    31.493357 
14530000   0.99418913   0.96181327    29.840188    56939.754   0.62943721     31.36824 
14532000   0.99439724    1.0199149    29.836202    56934.627   0.62949389    31.456416 
14534000   0.99885784    1.0442913     29.83652    56919.524   0.62966093    31.495018 
14536000    0.9965537    1.0252114     29.84199    56914.106   0.62972086    31.470031 
14538000   0.99338063   0.99853292    29.841329    56919.935   0.62965638    31.427167 
14540000   0.99792963    1.0760172    29.848867    56912.788   0.62973545    31.557548 
14542000    1.0016497    1.0776671    29.847365    56921.409   0.62964007    31.558926 
14544000   0.99814387    1.0447443    29.840469    56926.692   0.62958164    31.499895 
14546000   0.99846808   0.99239269    29.850829    56924.399     0.629607    31.427039 
14548000   0.99852271     1.042652     29.85242    56934.089   0.62949985    31.508738 
14550000   0.99397894    1.0598133    29.851282    56935.781   0.62948114    31.534912 
14552000   0.99725212    1.0036981     29.84321    56941.569   0.62941715    31.437857 
14554000   0.99123911    1.0694735    29.836655    56931.156   0.62953227    31.535493 
14556000   0.99877605    1.0427688    29.843506    56925.738   0.62959219    31.499767 
14558000   0.99670936    1.0071892    29.842972    56917.513   0.62968317    31.442489 
14560000   0.99770147    1.0100066    29.841683    56911.782   0.62974658    31.445514 
14562000    1.0000627     1.005902    29.839592    56909.346   0.62977353    31.436836 
14564000   0.99973346   0.99314438    29.847795      56900.3   0.62987365    31.424531 
14566000    1.0014716    1.0108537    29.845383    56904.967     0.629822    31.450366 
14568000    1.0010116    1.0690101    29.848557     56905.26   0.62981876    31.545887 
14570000    0.9992659    1.0750718    29.841715    56909.172   0.62977546    31.548786 
14572000   0.99462378     1.021519    29.842811    56910.876    0.6297566    31.464896 
14574000    1.0010749    1.0236266     29.84728    56901.404   0.62986144    31.472441 
14576000   0.99901901    1.0456558    29.840261    56901.567   0.62985963    31.500402 
14578000   0.99960872    1.0111468    29.845914    56909.802   0.62976849    31.451499 
14580000   0.99902943    1.0806623    29.846625    56914.235   0.62971944    31.562726 
14582000    1.0004081    1.0534639    29.843244    56907.166   0.62979765    31.515946 
14584000   0.99123142    1.0751818    29.840576    56915.488   0.62970557    31.548012 
14586000   0.99679193    1.0155153    29.840258    56917.449   0.62968388    31.452996 
14588000   0.99335397    1.0139006    29.839171    56907.017   0.62979931     31.44905 
14590000   0.99942388   0.99787428    29.838692    56911.116   0.62975395    31.423238 
14592000    1.0010471    1.1003873    29.845162    56901.459   0.62986083    31.592195 
14594000    1.0017374   0.98060081    29.849633    56911.279   0.62975215    31.406754 
14596000   0.99628159   0.99980602    29.849346    56906.948   0.62980008    31.436843 
14598000   0.99874436   0.99858207      29.8513     56914.36   0.62971805     31.43706 
14600000   0.99899439    1.0598681    29.851664    56931.379   0.62952981    31.535251 
14602000    1.0021443    1.0299193    29.855822    56919.101   0.62966561    31.491483 
14604000    1.0009451    1.0228091    29.855286    56928.614   0.62956039    31.479926 
14606000    1.0017832   0.98746979    29.851617    56937.285   0.62946451    31.420363 
14608000     1.003097   0.98750368    29.849447    56951.947   0.62930246    31.418651 
14610000    1.0008773   0.97322854    29.853009    56964.395   0.62916494    31.399866 
14612000    1.0016809   0.99028528    29.860719    56962.696    0.6291837     31.43464 
14614000    1.0032667     1.009199    29.855568    56951.955   0.62930237    31.459247 
14616000     1.001713   0.95366491    29.851923    56958.554   0.62922945    31.367531 
14618000    1.0043487     1.012922    29.856725    56976.134   0.62903531    31.467003 
14620000    1.0025724    1.0334201    29.850093    56986.995   0.62891542    31.493271 
14622000    1.0053065    0.9913881    29.857387    56987.309   0.62891196    31.433742 
14624000   0.99950515   0.98375629    29.855058    56987.091   0.62891437    31.419271 
14626000   0.99815633   0.99921434    29.853992    56975.042   0.62904736    31.442449 
14628000   0.99917766   0.99390218    29.849959    56975.927   0.62903759    31.429995 
14630000   0.99679078   0.95478575    29.848131    56965.721   0.62915029     31.36571 
14632000     1.005618   0.94331053    29.852359    56968.346    0.6291213    31.351769 
14634000   0.99907764   0.95595015    29.854953    56975.024   0.62904756    31.374632 
14636000    1.0054427   0.98318707    29.855159    56983.634   0.62895251    31.418372 
14638000   0.99794875   0.99986019    29.850077    56992.289     0.628857    31.440041 
14640000    1.0002674   0.92673787    29.857637    56991.728   0.62886319    31.331309 
14642000    1.0020762    1.0491619    29.849649    56981.933    0.6289713    31.517709 
14644000     1.000169    1.0211262    29.855393    56982.689   0.62896295      31.4789 
14646000   0.99446736    0.9987137    29.855118    56981.033   0.62898123    31.442945 
14648000    1.0064154    1.0369372    29.853562    56978.846   0.62900537    31.502097 
14650000    1.0048967    1.0375234    29.855136    56984.225   0.62894599    31.504758 
14652000    1.0062626    1.0474396      29.8589    56989.679   0.62888581    31.524448 
14654000    1.0023144    1.0357182    29.859509     56991.05   0.62887067    31.506458 
14656000    1.0025271    1.0253044    29.855247    56985.507   0.62893184    31.485478 
14658000   0.99851116    1.0031868    29.852942    56978.081   0.62901381    31.447799 
14660000   0.99586652   0.99117088    29.845858    56969.896   0.62910419    31.421385 
14662000   0.99317789   0.99464721    29.842998    56964.808   0.62916038     31.42391 
14664000   0.99628096   0.99197051     29.84824    56961.108   0.62920124    31.424795 
14666000    1.0006425   0.98318469    29.849422    56950.811   0.62931501    31.411732 
14668000     1.003124    1.0258787    29.850946    56945.196   0.62937706    31.480937 
14670000   0.99835603    1.0623381    29.846895    56945.522   0.62937345    31.534825 
14672000    1.0061524    1.0013046    29.853031    56945.584   0.62937278    31.443987 
14674000    1.0022367    1.0256185    29.857185    56946.076   0.62936734    31.486787 
14676000    1.0044552   0.96473298    29.854377    56944.709   0.62938244    31.387201 
14678000   0.99971984    1.0596813    29.853242    56947.823   0.62934802    31.537018 
14680000    1.0009224   0.98645781     29.85289    56952.246   0.62929915     31.42044 
14682000    1.0000784   0.93175119    29.852603    56954.877   0.62927008    31.333288 
14684000    1.0055467    1.0605405    29.862588    56953.334   0.62928713    31.547893 
14686000    1.0010831   0.99448706    29.853322    56965.809   0.62914932    31.434007 
14688000    1.0036701   0.96957034    29.861347    56964.146   0.62916768    31.402383 
14690000    1.0045449    1.0149986    29.858687    56976.959    0.6290262     31.47229 
14692000    1.0021753     1.004424    29.855724    56980.828   0.62898349    31.452624 
14694000    1.0026048    1.1034151    29.855784      56980.4   0.62898822    31.610054 
14696000    1.0021621   0.95738202    29.859886    56979.134   0.62900219     31.38195 
14698000    1.0057511   0.96496642      29.8608    56984.802   0.62893962    31.395075 
14700000    1.0036413    1.0225497    29.855183    56991.791    0.6288625    31.481214 
14702000    1.0036676   0.95410397    29.858642    56992.974   0.62884944    31.375863 
14704000   0.99897877   0.99802517    29.850332    56994.678   0.62883064    31.437445 
14706000   0.99895061    1.0383222    29.852425    56998.561    0.6287878    31.503732 
14708000   0.99695612   0.96336943    29.854734     56997.84   0.62879576     31.38682 
14710000   0.99555662    0.9695675     29.84809    56989.258   0.62889044    31.389801 
14712000   0.99099853   0.97535078    29.835519    56985.147   0.62893582    31.386315 
14714000    1.0018908   0.93903395     29.84055    56972.673   0.62907352    31.333276 
14716000   0.99651882    1.0215318    29.839682    56959.337   0.62922081    31.463168 
14718000   0.99593603   0.97806576    29.842811    56953.099   0.62928973    31.397049 
14720000   0.99804475   0.93437667    29.843489    56958.884   0.62922581    31.328451 
14722000   0.99814834   0.99823316    29.841991     56954.61   0.62927303    31.428318 
14724000   0.99648406    1.0489247    29.847448     56947.43   0.62935237    31.514121 
14726000    1.0025389   0.94911981     29.84938    56939.789   0.62943682    31.357267 
14728000    1.0005097    1.0317565    29.843369    56943.784   0.62939266    31.482658 
14730000    1.0003774    1.0571049     29.84406    56936.832   0.62946951    31.523419 
14732000   0.99678603       1.0184    29.844719    56943.896   0.62939143     31.46279 
14734000   0.99934275   0.90791297    29.848567     56955.48   0.62926341    31.291386 
14736000   0.99741372   0.98800589    29.843748    56951.623   0.62930603    31.413741 
14738000   0.99382785   0.98743396    29.844515     56947.46   0.62935203    31.413484 
14740000   0.99552624   0.98659776     29.83543    56948.265   0.62934314    31.403093 
14742000   0.99146397     1.049819    29.832222    56949.645   0.62932789    31.500381 
14744000   0.99459721   0.98780578      29.8371    56953.177   0.62928886    31.406817 
14746000   0.99335951    0.9888847    29.838757    56937.735   0.62945953    31.409763 
14748000   0.99293055    1.0400709    29.845668    56930.289   0.62954186    31.497776 
14750000   0.99369735    1.0288804    29.840757    56927.814   0.62956923    31.475018 
14752000   0.99311123    1.0018613    29.841771    56917.913   0.62967875    31.432838 
14754000    0.9965941   0.95734666    29.837998    56909.628   0.62977042    31.358149 
14756000   0.99497333    1.0316741    29.833313     56911.02   0.62975501    31.471528 
14758000   0.99343672   0.99104816    29.828509    56915.935   0.62970062     31.40235 
14760000   0.99435641   0.97302044    29.837853    56907.849    0.6297901    31.382844 
14762000   0.99271681   0.96471215    29.833523    56892.259   0.62996268    31.364903 
14764000   0.99175496   0.97379502    29.835064    56880.007   0.63009837    31.380529 
14766000   0.99401088   0.95138754     29.83865     56869.76   0.63021191    31.348281 
14768000   0.99571622    0.9665513    29.838415     56880.51   0.63009281    31.372398 
14770000   0.99647552    1.0040929    29.837261    56875.888   0.63014401    31.430695 
14772000   0.99817897    1.0203712    29.842071     56875.52   0.63014809    31.461328 
14774000   0.99594195    1.0096298    29.834987    56866.091   0.63025257    31.436932 
14776000   0.99407074    1.0334724    29.843093     56870.15   0.63020758    31.482985 
14778000   0.98675333   0.96588885    29.833313    56883.277   0.63006216    31.366318 
14780000   0.99521448   0.97477754     29.83832    56872.035   0.63018669    31.385128 
14782000   0.99960531   0.99582878    29.841754    56885.534   0.63003715    31.422341 
14784000     1.002008   0.97183926     29.85452        56904   0.62983271    31.397532 
14786000    1.0014824   0.99149968    29.852496     56909.18   0.62977537    31.426866 
14788000    1.0016992    1.0531894    29.848636    56920.807   0.62964673    31.521303 
14790000    1.0083009   0.99649505    29.859006    56927.311   0.62957479    31.441813 
14792000    1.0017252    1.0640282    29.851381    56942.964   0.62940173     31.54192 
14794000   0.99892235    1.0034759    29.847792    56944.158   0.62938854    31.442159 
14796000   0.99683877    1.0650045    29.847405    56943.936   0.62939098    31.539524 
14798000   0.99329748   0.98857513    29.845397    56938.365   0.62945257    31.415928 
14800000    1.0012278    0.9360054    29.848408    56947.711   0.62934927    31.335667 
14802000   0.99521868    1.0056558    29.840105    56949.616   0.62932821    31.438088 
14804000    1.0021379    1.0004674    29.848231    56946.334   0.62936449    31.437878 
14806000    1.0006662    1.1118023    29.848678    56950.303   0.62932062    31.615349 
14808000    1.0059942    0.9911987    29.862605    56956.688   0.62925007    31.437811 
14810000    1.0011625   0.98859053    29.861495    56960.903    0.6292035    31.432673 
14812000    1.0046433   0.99714732    29.852681    56961.381   0.62919823    31.437472 
14814000   0.99846252    0.9692233    29.853496    56964.774   0.62916076    31.393998 
14816000    1.0035644   0.93583759    29.856839    56961.501   0.62919691    31.344191 
14818000    1.0056795   0.94735528    29.852204    56965.481   0.62915295    31.357967 
14820000   0.99956395    1.0161008    29.849321    56963.892   0.62917049    31.464306 
14822000    1.0055792    1.0249468    29.862352    56967.621   0.62912931    31.491503 
14824000    1.0031161   0.99969851    29.864094    56966.973   0.62913647    31.453095 
14826000    1.0047179   0.92402863    29.860031    56976.101   0.62903567    31.328991 
14828000    1.0012234   0.98956736    29.856574     56979.09   0.62900267    31.429807 
14830000    1.0042515    1.0773494    29.858548    56985.226   0.62893494    31.571522 
14832000    1.0030932   0.99031392    29.855953    56992.487   0.62885482    31.430742 
14834000    1.0027363   0.96674493    29.853399    56998.296   0.62879072    31.390866 
14836000     1.001092    1.0120201    29.854163     56994.25   0.62883537    31.463519 
14838000    1.0068045    1.0195584    29.861429    57011.634   0.62864362    31.483268 
14840000   0.99676949   0.99768258    29.858646     57002.45   0.62874491    31.445431 
14842000    1.0061114   0.99221856    29.860165    57000.028   0.62877162    31.438192 
14844000   0.99878361   0.91963132    29.853461    56989.662   0.62888599    31.315779 
14846000   0.99572371   0.98067557    29.843325    56985.466   0.62893229    31.402596 
14848000    1.0009044   0.95785944    29.851404    56986.006   0.62892634    31.374411 
14850000    1.0002225   0.96670697    29.843862    56982.793    0.6289618    31.380851 
14852000   0.99967523   0.98237363    29.846993    56977.823   0.62901667    31.408754 
14854000   0.99703484    0.9498602    29.838609    56962.943   0.62918097    31.348287 
14856000   0.99747555    0.9158733    29.844042    56956.973   0.62924693    31.299549 
14858000    1.0020898   0.98396932    29.848043     56952.27   0.62929888    31.411639 
14860000    0.9961338    1.0178017    29.844053    56953.163   0.62928902    31.461436 
14862000    1.0005985    1.0371356    29.851432    56956.129   0.62925625    31.499625 
14864000    1.0021885   0.97051158    29.852818    56961.541   0.62919646     31.39528 
14866000    1.0041303    1.0836381    29.858311    56969.783   0.62910544    31.580817 
14868000    1.0048821    1.0406086    29.852877    56975.151   0.62904616    31.507141 
14870000    1.0017784    1.0391324    29.850659    56970.615   0.62909624    31.502445 
14872000    1.0006209   0.98061032    29.851841    56976.543   0.62903079    31.410764 
14874000    1.0023132   0.96851173    29.854081    56975.904   0.62903785    31.393753 
14876000     1.000454    1.0474284    29.856904    56974.339   0.62905513    31.521986 
14878000   0.99919368   0.95719645     29.85054    56977.469   0.62902057    31.372265 
14880000   0.99930715    1.0238362    29.860359    56982.908   0.62896053    31.488182 
14882000   0.99823763    1.0720909    29.848643    56980.918   0.62898249    31.553127 
14884000    1.0054946    1.0357824    29.852292    56979.002   0.62900364    31.498996 
14886000    1.0021646    1.0522125    29.852184    56982.808   0.62896164    31.525119 
14888000   0.99914548   0.93677787    29.853573    56980.244   0.62898993     31.34291 
14890000   0.99583288   0.99173289    29.855446    56976.296   0.62903352    31.432044 
14892000   0.99931163   0.98077842    29.852467    56959.502   0.62921898     31.41119 
14894000     1.002377    1.0087174    29.850753    56957.359   0.62924265    31.453819 
14896000   0.99508964    0.9753789    29.850171    56948.119   0.62934476    31.400003 
14898000    0.9985895    1.0866057       29.843    56944.088   0.62938931    31.569444 
14900000   0.99616143     1.056546    29.838009    56950.893    0.6293141    31.516894 
14902000   0.99687397    1.0303336    29.846667     56951.11    0.6293117    31.483906 
14904000   0.99989455    1.0008652    29.845503    56958.208   0.62923328    31.436113 
14906000    1.0003144   0.98982079     29.84188    56957.839   0.62923735    31.414929 
14908000    1.0004972   0.96878391     29.84966    56963.864    0.6291708    31.389439 
14910000    1.0038779   0.94774302    29.855424    56972.793    0.6290722    31.361997 
14912000    1.0028949    1.0082703    29.857586    56988.719   0.62889639    31.460824 
14914000    1.0051911    1.0539513    29.850864    56995.213   0.62882474    31.526929 
14916000    1.0010259   0.99314054     29.85753    57000.526   0.62876613    31.437037 
14918000    1.0021249   0.96217375    29.858547    57007.106   0.62869355    31.388981 
14920000   0.99822528    1.0992211    29.853304    57006.451   0.62870077    31.601705 
14922000   0.99739293    1.0028878    29.850533    57005.915   0.62870669    31.445693 
14924000   0.99507133    1.0219059     29.84239    56995.577   0.62882073    31.467505 
14926000   0.99606436     1.020313    29.842042    56988.999    0.6288933    31.464437 
14928000   0.99879038    1.0272303    29.839523    56980.657   0.62898538    31.472677 
14930000   0.99440488    1.0197962    29.845269    56982.883    0.6289608    31.466668 
14932000   0.99442613    1.0758271    29.847412    56975.181   0.62904583    31.557664 
14934000   0.99898926   0.98133865    29.850994    56986.381    0.6289222    31.411343 
14936000   0.99843897   0.96710735    29.846471    56986.903   0.62891644    31.384207 
14938000    1.0010508    1.0312807    29.851195    56976.061   0.62903611    31.490657 
14940000     1.004843    1.0273196    29.852139    56983.745   0.62895129    31.485524 
14942000   0.99791282    1.0200199    29.841432    56982.596   0.62896397    31.463178 
14944000   0.99547732   0.96385303    29.845705    56984.878   0.62893878    31.378212 
14946000    1.0006547   0.99638356    29.850869    56983.278   0.62895645    31.435054 
14948000    1.0023827    1.0311388    29.862024    56986.681   0.62891889    31.501565 
14950000   0.99986633    1.0521466    29.850956    56999.168   0.62878111    31.524268 
14952000    1.0046222    1.0446632    29.860649    57004.538   0.62872187    31.522215 
14954000    1.0031751    1.0627467    29.852884    57014.977   0.62860676    31.543523 
14956000    1.0033763   0.99453525    29.858054    57009.725   0.62866467    31.440034 
14958000    1.0087892    1.0247128    29.864769    57011.443   0.62864573    31.494801 
14960000    1.0027517    1.0133896    29.857574    56998.715   0.62878611    31.469234 
14962000   0.99881529   0.95340146    29.853736    56991.395   0.62886687    31.369799 
14964000    1.0082846   0.95453391    29.853897    56991.592   0.62886469    31.371766 
14966000    1.0007239   0.98516655    29.856684    56985.591   0.62893092    31.423098 
14968000   0.99957417    1.0184024    29.842236    56978.123   0.62901335    31.461283 
14970000   0.99712823    1.0369256    29.842706     56973.04   0.62906947    31.491054 
14972000   0.99633549   0.96917549     29.85348    56985.767   0.62892898    31.394473 
14974000   0.99937284    1.0224876    29.844818    56990.554   0.62887614    31.470714 
14976000   0.99973984     1.059504    29.835686    56980.266   0.62898969     31.52014 
14978000   0.99460984    1.0121301    29.834303    56974.151    0.6290572    31.443267 
14980000   0.99109975    0.9356014    29.829286    56954.335   0.62927607    31.316077 
14982000    0.9966402   0.97921077    29.828911    56937.891   0.62945781    31.384553 
14984000   0.99449501    1.0553434    29.833492     56929.88   0.62954639    31.509847 
14986000   0.99849307    1.0281372    29.842043    56935.677   0.62948229    31.475349 
14988000   0.99363304     1.044744    29.838631     56935.33   0.62948613    31.498308 
14990000    0.9931963   0.98336291    29.835603    56927.767   0.62956975    31.397564 
14992000   0.99747149   0.99079818    29.849853    56939.232   0.62944298     31.42394 
14994000    1.0019874   0.95400219     29.85043    56941.534   0.62941754     31.36612 
14996000    1.0033497   0.96360613    29.851383    56929.255    0.6295533    31.382001 
14998000   0.99318446   0.98405637    29.845734    56937.995   0.62945666    31.409076 
15000000   0.99979933    1.0723492    29.848733    56939.033   0.62944518    31.552375 
15002000   0.99856969     1.073383     29.84923    56946.048   0.62936764    31.554725 
15004000   0.99713458   0.99167496    29.842908    56947.403   0.62935266    31.418614 
15006000   0.99513382    1.0184348    29.842724    56942.718   0.62940445    31.460817 
15008000    1.0005334    1.0216581    29.846635    56945.908   0.62936919     31.46994 
15010000   0.99343185    1.0263707    29.845716    56935.886   0.62947998    31.476222 
15012000   0.99555188    1.0241413    29.847196    56942.451    0.6294074    31.474347 
15014000    1.0019147   0.99123081    29.849768    56946.506   0.62936258    31.424744 
15016000   0.99405922   0.91489607    29.843057    56940.059   0.62943384    31.296579 
15018000   0.99886777     1.033026    29.849426     56943.53   0.62939547    31.490724 
15020000    1.0004617   0.97948643    29.851669    56959.106   0.62922336    31.408329 
15022000     1.000627     1.051908    29.859506    56963.021   0.62918012    31.531378 
15024000    1.0012805   0.97520366     29.85563    56969.383   0.62910985    31.405763 
15026000    1.0017254   0.98220939    29.854201    56976.291   0.62903358    31.415659 
15028000    1.0036967    1.0110186    29.856686    56978.489   0.62900931    31.464005 
15030000    1.0023793    1.0009297    29.856229    56980.061   0.62899195    31.447552 
15032000    1.0095228    1.1015241     29.86061    56991.343   0.62886744    31.612209 
15034000    1.0071172    1.0056553    29.862733    56998.466   0.62878886    31.462086 
15036000    1.0045676    1.0342426    29.854888    56999.653   0.62877575    31.499739 
15038000    1.0000829    1.0873188    29.854539    57006.379   0.62870157    31.584006 
15040000   0.99453064    1.0465503    29.850583    57005.612   0.62871003    31.515183 
15042000    0.9996994    1.0642456    29.852186    57010.363   0.62865764    31.545072 
15044000   0.99629801    1.0221817    29.856489    57006.489   0.62870036    31.482354 
15046000   0.99976587    1.0050366    29.851385    57002.704    0.6287421    31.449873 
15048000    1.0005155   0.93388748    29.839521    56992.165   0.62885837    31.324573 
15050000   0.99804511   0.97480135    29.838294    56977.945   0.62901532     31.38802 
15052000    1.0017356   0.98874348     29.84374    56975.472   0.62904262    31.415563 
15054000    1.0009672    1.0607266     29.84985    56973.269   0.62906694    31.536041 
15056000   0.99892895    1.0227311    29.847579    56981.832   0.62897241    31.473614 
15058000    1.0057039   0.95403962    29.861677    56982.935   0.62896024    31.378529 
15060000    1.0059179    1.0013298     29.84824    56987.643   0.62890827    31.440411 
15062000    1.0016842    1.0246511    29.850713    56992.222   0.62885774    31.480097 
15064000     1.001963   0.99863993    29.849629    56992.501   0.62885466    31.437658 
15066000    1.0038912   0.98828264    29.856166    56987.074   0.62891455    31.427576 
15068000   0.99773686   0.99703638    29.848672    56978.302   0.62901137    31.433757 
15070000   0.99674411   0.94818524    29.855144    56968.001   0.62912511    31.362293 
15072000   0.99559583    1.0025837     29.84851    56961.911   0.62919237    31.441955 
15074000   0.99863208    1.0525421    29.850723    56957.015   0.62924646    31.523426 
15076000    1.0007583   0.95106957    29.844166    56960.276   0.62921044    31.355695 
15078000    1.0004306    0.9863817    29.837933    56957.341   0.62924286    31.405503 
15080000    1.0004666    1.0032443    29.850257    56946.849   0.62935878    31.444331 
15082000    1.0026545   0.98644647    29.854332     56948.03   0.62934574    31.421748 
15084000   0.99672042    1.0285047    29.849883    56946.307   0.62936478    31.484078 
15086000    1.0005494    1.0155392    29.848979    56940.393   0.62943015    31.462405 
15088000   0.99780197   0.94368706    29.847282    56936.823   0.62946961     31.34646 
15090000    1.0035255     1.010978     29.85141    56940.305   0.62943112    31.457587 
15092000    1.0002476    1.0047575    29.847145    56944.651   0.62938308    31.443561 
15094000   0.99752087   0.99930123    29.843875    56945.937   0.62936887    31.431658 
15096000    1.0012966    1.0805907    29.851323    56949.587   0.62932854    31.568377 
15098000   0.99707052    1.0122321    29.853718    56946.901   0.62935821    31.462074 
15100000   0.99932901    1.0820587    29.854899    56954.215   0.62927739    31.574425 
15102000    1.0052505    1.0608552    29.857185    56969.996   0.62910308    31.543483 
15104000    1.0021401   0.97873928    29.856134    56977.818   0.62901672    31.412117 
15106000   0.99865644    1.0224578    29.853498    56970.374    0.6290989    31.478771 
15108000    1.0024199   0.99524601    29.856642    56974.676    0.6290514     31.43878 
15110000     1.001356    1.0219748    29.856527    56975.563   0.62904161    31.481181 
15112000    1.0031096    1.0110184    29.854885    56982.507   0.62896495    31.462317 
15114000    1.0028448   0.96486871    29.852532    56987.092   0.62891435    31.386713 
15116000     1.002877   0.97706462    29.852159    56978.269   0.62901174    31.405492 
15118000   0.99445477    1.0285358    29.841342    56976.473   0.62903156    31.476452 
15120000   0.99642588    1.0349999     29.84042    56959.211    0.6292222    31.485308 
15122000    1.0005243     1.049608    29.845812    56956.671   0.62925026    31.513841 
15124000   0.99982276   0.96067375    29.845513    56960.565   0.62920724    31.372314 
15126000   0.99786416    1.0001946    29.846592    56955.693   0.62926106    31.436067 
15128000   0.99283157    1.0067312    29.847735     56950.11   0.62932275    31.447441 
15130000   0.99836854    1.0232131    29.844308    56937.301   0.62946432    31.469838 
15132000   0.99835942    1.0795547    29.840838    56933.779   0.62950327    31.555769 
15134000   0.99584034   0.99401101    29.845618    56924.406   0.62960692    31.424398 
15136000   0.99400535   0.94475804    29.832878    56917.148    0.6296872    31.333239 
15138000   0.99531494    0.9890096    29.831046     56901.34   0.62986214    31.401246 
15140000   0.98979216    1.0205846     29.83115    56894.435   0.62993859    31.451283 
15142000   0.99172689    1.0374241    29.843165    56893.558    0.6299483    31.490005 
15144000   0.99415957    0.9827352    29.837015    56886.642   0.63002489    31.396851 
15146000   0.99238645    1.0098298    29.833556     56904.22   0.62983027    31.436893 
15148000   0.99689907   0.97900227    29.832929    56901.189   0.62986382    31.387236 
15150000   0.99475178   0.91952078    29.838403    56912.257   0.62974132    31.298559 
15152000   0.99257049   0.99398429    29.839639    56922.506   0.62962794    31.418324 
15154000   0.99855666     0.968141    29.844287    56924.802   0.62960254    31.381988 
15156000   0.99946792   0.99509521    29.849495    56935.086   0.62948882    31.430294 
15158000    1.0031675    1.0571388    29.856722    56938.153   0.62945491    31.536173 
15160000    1.0073199   0.99538918     29.85744     56945.96   0.62936861    31.439008 
15162000     1.005373    1.0486154    29.851844    56954.873   0.62927012    31.518243 
15164000    1.0015587    1.0473662    29.849106    56956.207   0.62925538     31.51356 
15166000   0.99918705    1.0576127    29.852391    56966.531   0.62914135    31.533432 
15168000     0.997811    1.0481901    29.845595    56968.715   0.62911722    31.511723 
15170000     1.002374    1.0036433    29.849116    56976.472   0.62903158    31.444653 
15172000   0.99739249   0.91856675    29.850318    56981.456   0.62897656    31.310733 
15174000    0.9986799     1.045292    29.843205    56978.703   0.62900695    31.505018 
15176000   0.99769967   0.95224731    29.850096    56971.735   0.62908388    31.363801 
15178000    0.9968402   0.94885102    29.850213    56968.162   0.62912333    31.358425 
15180000   0.99729772    1.0405543    29.843095    56954.177   0.62927782    31.496664 
15182000   0.99829971     1.006527    29.848969    56947.313   0.62935366    31.448271 
15184000   0.99879541    1.0249773    29.844499    56949.551   0.62932893    31.473182 
15186000   0.99771512   0.97209861    29.847983    56953.707   0.62928301    31.392755 
15188000    0.9982087    1.0272647    29.843352    56971.897   0.62908209     31.47631 
15190000    1.0002558   0.97467029    29.854431    56968.162   0.62912333    31.403682 
15192000    1.0004301   0.97203668    29.851778    56976.117    0.6290355    31.397059 
15194000    1.0002184   0.95158123    29.852872    56982.057   0.62896993    31.365792 
15196000     1.003221    1.0378044    29.855245    56982.983    0.6289597    31.505278 
15198000   0.99366249    1.0098915    29.840581    56974.793   0.62905011    31.446004 
15200000   0.99997318   0.97420473    29.850078    56966.177   0.62914525    31.398536 
15202000   0.99874638   0.97507746    29.846419    56971.932    0.6290817    31.396421 
15204000   0.99820897    1.0530217    29.850357    56961.023   0.62920218     31.52394 
15206000   0.99769631   0.95934717    29.842396    56955.491   0.62926329    31.366952 
15208000   0.99915561    1.0092456    29.847021    56943.425   0.62939664    31.450534 
15210000    1.0020143    1.0076139    29.852429    56947.275   0.62935408    31.453457 
15212000    1.0034912   0.91753966    29.845845    56954.876    0.6292701    31.303947 
15214000     1.003256    1.0290184    29.852018    56959.234   0.62922195      31.4874 
15216000    1.0017375    1.0955705    29.860963    56964.795   0.62916052    31.602284 
15218000    1.0046712    1.0236374    29.856303    56976.396   0.62903242    31.483623 
15220000    1.0055738   0.99278279    29.861065    56989.827   0.62888417    31.439706 
15222000   0.99474142    1.0694248    29.854637    56985.852   0.62892804     31.55503 
15224000   0.99782511   0.91028335    29.843806    56980.992   0.62898168     31.29104 
15226000    0.9943599    1.0128443     29.84826    56967.727   0.62912814    31.458177 
15228000    0.9934178    1.0018778    29.845592    56964.115   0.62916803    31.437977 
15230000   0.99418875   0.97499872    29.842017    56942.148   0.62941075    31.391083 
15232000    0.9977323    1.0014518     29.83654    56942.907   0.62940236    31.427656 
15234000   0.99727156   0.99374881    29.842259    56931.384   0.62952976    31.420816 
15236000   0.99819222   0.96415482     29.84112    56924.703   0.62960364    31.372488 
15238000   0.99921728    1.0398286    29.849853    56922.842   0.62962421    31.501359 
15240000    0.9968806    1.0478324    29.851428    56929.815   0.62954711     31.51585 
15242000    1.0028265    1.0116534    29.849574    56932.886   0.62951314    31.456615 
15244000    1.0035303   0.98764957    29.855037    56948.685    0.6293385    31.424383 
15246000   0.99550133   0.95228719    29.849761    56948.995   0.62933508    31.362925 
15248000    1.0029276   0.98596538    29.847349    56937.447   0.62946271    31.413709 
15250000   0.99885524   0.95485758    29.845075    56940.923   0.62942429    31.362108 
15252000    1.0067922    1.0016368    29.854873    56946.158   0.62936642    31.446374 
15254000    1.0047357   0.88791807    29.859026    56953.516   0.62928512    31.270021 
15256000    1.0045392   0.99277341    29.851033    56968.259   0.62912226    31.429062 
15258000   0.99907571   0.92650429    29.852508    56970.472   0.62909782    31.325258 
15260000    1.0045206   0.95730348     29.85176    56965.921   0.62914808    31.373347 
15262000    0.9980618    1.0185558    29.845877     56969.77   0.62910557    31.464931 
15264000    1.0006474    1.0389821    29.850747    56971.273   0.62908898    31.502313 
15266000    1.0003808    1.0134411    29.843108    56969.651   0.62910689    31.454029 
15268000   0.99451703    1.0012764    29.843443    56970.021   0.62910281    31.435037 
15270000    0.9937151    1.0110609    29.842408    56968.425   0.62912043     31.44951 
15272000    1.0015005   0.96965099    29.835978     56964.36   0.62916532    31.377148 
15274000   0.99613797    1.0108273    29.846256    56958.844   0.62922626    31.452717 
15276000    1.0003152   0.92594995    29.852525    56956.405   0.62925319    31.324032 
15278000   0.99928066    1.0042054    29.850666    56967.583   0.62912973    31.446848 
15280000    0.9984033    1.0172885    29.850991    56970.638     0.629096    31.468055 
15282000    1.0004039    1.0267395    29.859045    56983.465   0.62895439    31.491499 
15284000    1.0090334    1.0428186    29.856278    57002.433    0.6287451    31.514849 
15286000    1.0019967   0.95275841    29.856044    57001.138   0.62875937    31.371343 
15288000    1.0060379    1.0385541    29.855596    57001.712   0.62875305    31.507364 
15290000   0.99874971    1.0212397     29.85666    56996.429   0.62881133    31.480739 
15292000   0.99758718    1.0604754    29.866559    57003.029   0.62873851    31.553231 
15294000    1.0032591   0.99768473    29.854475    57004.537   0.62872189     31.44132 
15296000   0.99900514    1.0155449    29.854211    57006.857    0.6286963     31.46953 
15298000   0.99929741   0.98656418    29.849091    57006.354   0.62870184      31.4183 
15300000   0.99932569   0.90075374    29.847194    56991.012    0.6288711    31.279528 
15302000   0.99571657   0.97764053    29.847754    56980.648   0.62898548    31.402067 
15304000   0.99590897    1.0847952    29.844255    56968.744   0.62911691     31.56857 
15306000   0.99525141   0.94304455    29.844697    56955.834    0.6292595    31.343355 
15308000    1.0037011    1.0831414    29.848877    56949.874   0.62932536    31.569992 
15310000   0.99780302    1.0272251    29.850508    56942.492   0.62940695    31.482561 
15312000   0.99514781   0.96459506    29.856825    56941.897   0.62941353    31.389355 
15314000    1.0044658    1.0229136    29.858577    56952.666   0.62929451    31.484069 
15316000    1.0000609   0.97340227    29.858371    56967.937   0.62912581    31.405601 
15318000   0.99506036   0.99024941    29.854164    56968.672    0.6291177    31.428192 
15320000   0.99851689   0.98642517    29.851886    56965.821   0.62914919    31.419757 
15322000   0.99937905    1.0745144    29.855078    56960.587     0.629207    31.562806 
15324000   0.99857534    1.0071093    29.853038    56961.629   0.62919549    31.453668 
15326000    1.0050724    1.0562179    29.858056    56962.752   0.62918308    31.536769 
15328000    1.0016867   0.94308765    29.843033    56953.752   0.62928251    31.341704 
15330000   0.99635793    1.0367768     29.83751    56950.575   0.62931761    31.484972 
15332000    0.9986764   0.99562737    29.838476    56946.517   0.62936245    31.420437 
15334000   0.99872744    1.0423392    29.848241    56933.474   0.62950664    31.504045 
15336000   0.99396946   0.98176628     29.84116    56927.821   0.62956915    31.400586 
15338000   0.99710231    0.9773131    29.845469    56920.322   0.62965209    31.397617 
15340000   0.99808454   0.96649899    29.851743    56925.686   0.62959276    31.386861 
15342000    1.0006335   0.96087846     29.85082    56922.088   0.62963256    31.376914 
15344000    1.0023416   0.99336586    29.852934    56921.344   0.62964079    31.430604 
15346000    1.0001275   0.97236308    29.852101    56930.536   0.62953912    31.396664 
15348000     1.000688    1.0273875     29.84928    56941.361   0.62941945    31.481558 
15350000   0.99491186   0.98798212    29.841739    56943.071   0.62940054    31.411458 
15352000    1.0017804   0.93825669    29.852714    56947.605   0.62935043    31.343548 
15354000    1.0069756   0.99446554    29.864957    56965.328   0.62915463    31.445595 
15356000    1.0085578   0.99745062    29.858623    56972.399   0.62907655    31.444202 
15358000    1.0040738    1.0211774    29.854785    56975.257     0.629045    31.478163 
15360000    1.0031521   0.97866432    29.859598    56978.251   0.62901194    31.415473 
15362000    1.0003042   0.97728462    29.857764    56986.635   0.62891939    31.411675 
15364000   0.99811209    0.9952314    29.853022    56978.588   0.62900822    31.435245 
15366000   0.99787277    1.0016217    29.847751    56977.173   0.62902383    31.440095 
15368000    1.0043319    1.0643831    29.856754    56970.489   0.62909764    31.548674 
15370000    1.0008563   0.99012027    29.853856    56971.288   0.62908881    31.427752 
15372000   0.99829341    1.0794037     29.84897    56980.034   0.62899225    31.565054 
15374000    1.0015348   0.95301182    29.844553    56983.399   0.62895511    31.359784 
15376000   0.99905361      1.02527    29.849222    56979.745   0.62899545    31.479234 
15378000    1.0001169   0.94040933    29.845211    56981.652   0.62897439    31.340358 
15380000     1.000766    1.1207836    29.845239     56976.92   0.62902664    31.627014 
15382000   0.99780884   0.98596634    29.839874    56968.817    0.6291161    31.407099 
15384000   0.99778083   0.93981006    29.844938    56950.675   0.62931651    31.338321 
15386000   0.99751564    1.0024722    29.840465    56946.621   0.62936131    31.433306 
15388000   0.99625912    1.0376027    29.838833     56939.52    0.6294398    31.487287 
15390000   0.99988358    1.0169635    29.844396    56939.017   0.62944536    31.460046 
15392000   0.99650763   0.99237973    29.839382    56934.278   0.62949775    31.415845 
15394000   0.99572221   0.96702252    29.845548    56944.593   0.62938373    31.382008 
15396000   0.99871564    0.9782998    29.846503    56951.603   0.62930626    31.401072 
15398000    1.0073095    0.9405639    29.853311     56957.08   0.62924574    31.348059 
15400000    1.0032654    1.0029752    29.855242    56973.217   0.62906752    31.449626 
15402000    0.9975159    0.9729728    29.850454    56973.837   0.62906067    31.397161 
15404000    1.0014295    1.0157681     29.86192    56979.069   0.62900291    31.476806 
15406000    1.0035883    1.0684781    29.864588    56988.022   0.62890409     31.56354 
15408000    1.0047092    0.9985012    29.864446    56998.477   0.62878873    31.452421 
15410000     0.999607    1.0420612    29.863291    57008.361   0.62867971     31.52083 
15412000    1.0045214   0.95861349     29.85975    57008.959   0.62867312    31.384571 
15414000   0.99408053   0.94504012    29.858656    57003.667   0.62873148    31.361747 
15416000   0.99999762    1.0647856    29.852882     56998.25   0.62879123    31.546267 
15418000    1.0030866    1.0715851    29.847902    56999.179   0.62878098    31.552129 
15420000    1.0011816   0.99147314    29.862019    56996.112   0.62881482    31.438752 
15422000    0.9965267   0.93228902    29.848289    56997.835   0.62879582    31.330947 
15424000   0.99805212   0.95806548    29.850092     56992.18   0.62885821    31.373592 
15426000   0.99459572     1.027636    29.850192    56982.756   0.62896221    31.484051 
15428000   0.99757756     1.006641    29.850922    56974.326   0.62905526    31.451165 
15430000   0.99557688   0.97676282    29.843595    56970.407   0.62909854    31.396234 
15432000    1.0005972    1.0748178    29.851186    56974.057   0.62905824      31.5598 
15434000   0.99717348   0.96882428    29.848065    56967.181   0.62913417    31.387997 
15436000   0.99623719    1.0182098    29.848924    56962.767   0.62918292    31.467229 
15438000    1.0071383    1.0128236    29.851619    56968.248   0.62912238    31.461518 
15440000   0.99562385    1.0672523     29.85154    56976.858   0.62902731     31.54821 
15442000    1.0006627    1.0109501    29.849411    56969.428   0.62910935    31.456365 
15444000     1.000441    1.0585321    29.843577    56966.541   0.62914123     31.52608 
15446000    0.9986584   0.98430176    29.847481    56959.185   0.62922249    31.411795 
15448000   0.99463838    1.0095833    29.844407    56949.877   0.62932533    31.448638 
15450000   0.99839784     1.011713    29.844733    56939.514   0.62943986    31.452056 
15452000    1.0049238   0.98839673     29.86013    56946.698   0.62936046    31.430608 
15454000    1.0052337    0.9959924    29.862188    56957.099   0.62924553    31.445024 
15456000    1.0012511    1.0252624    29.851351    56968.289   0.62912193    31.481023 
15458000   0.99586606    1.0160959    29.849239    56973.858   0.62906044    31.464499 
15460000    1.0037713   0.97214262    29.847274    56976.295   0.62903353    31.392729 
15462000   0.99965433     1.084816    29.845949    56976.752   0.62902848    31.570539 
15464000    1.0001924    1.0154461    29.843492    56978.578   0.62900833    31.457853 
15466000   0.99915716   0.98961248    29.842853    56972.522   0.62907518    31.415976 
15468000   0.99759778    1.0154192    29.853117    56967.114    0.6291349     31.46711 
15470000   0.99591988     1.035963    29.844914    56961.886   0.62919265     31.49141 
15472000    1.0014879   0.96476958    29.849199    56962.369   0.62918732    31.382557 
15474000   0.99707579    1.0197505    29.846575    56954.555   0.62927364    31.467095 
15476000   0.99782326     0.941742      29.8658    56961.022    0.6292022    31.362524 
15478000    1.0014968    1.0447175    29.852608    56961.583     0.629196    31.513008 
15480000    0.9993545    0.9350901    29.852951    56958.483   0.62923024    31.339036 
15482000    1.0026928    1.0633861    29.846452    56956.083   0.62925675    31.536361 
15484000   0.99980597   0.98501025    29.850522    56957.181   0.62924462    31.415907 
15486000   0.99654128   0.96037457    29.841489    56959.634   0.62921753    31.367789 
15488000   0.99900387    1.0577262     29.84764    56960.803   0.62920461    31.528693 
15490000    1.0018969   0.99102036    29.848746    56955.906   0.62925871    31.423647 
15492000    1.0008615    1.0222377    29.852053    56962.056   0.62919078    31.476739 
15494000    1.0005124    1.0138499    29.856014    56963.853   0.62917092    31.467421 
15496000   0.99976618   0.92064085    29.854445    56968.726   0.62911711    31.317831 
15498000    1.0033035    1.0196927    29.853924    56973.309    0.6290665    31.474886 
15500000    1.0017656    1.0021336    29.858824    56976.659   0.62902951    31.451967 
15502000    1.0010221   0.96217731    29.854203    56992.943   0.62884978    31.384263 
15504000    1.0005153   0.99028461    29.857458    56991.507   0.62886563    31.432174 
15506000    1.0046724   0.95818458    29.858207    56985.054   0.62893684    31.381706 
15508000    1.0031031   0.98224588    29.854615    56983.509   0.62895389    31.416329 
15510000    1.0027978     1.016083    29.860912    56993.125   0.62884778    31.476698 
15512000    1.0053114   0.98002199     29.85969    57003.964    0.6287282    31.418427 
15514000    1.0053955    0.9543713    29.867097    57005.065   0.62871606    31.385066 
15516000    1.0050508    1.0217429    29.869989    57015.371   0.62860242    31.495409 
15518000    1.0011205    1.0092985    29.861265    57030.409   0.62843667    31.467311 
15520000    1.0008186   0.96613784    29.850396    57025.779   0.62848769    31.387639 
15522000   0.99796542   0.99473963    29.851925    57029.501   0.62844667    31.434779 
15524000    1.0053202     1.037577    29.859011    57015.251   0.62860374    31.509617 
15526000    1.0061098   0.96508807     29.85925    57022.769   0.62852086    31.394741 
15528000    1.0077887   0.94640802    29.864155    57024.414   0.62850274    31.369968 
15530000    1.0032241   0.98209188    29.861809    57018.566    0.6285672    31.424238 
15532000    1.0072414    1.0147337    29.862974    57014.222   0.62861508    31.477211 
15534000    1.0004907   0.98359577    29.858279    57013.874   0.62861892    31.422973 
15536000    1.0018004   0.96737304    29.852904    57015.498   0.62860101    31.391834 
15538000    1.0005888   0.95632597    29.853501    57008.542   0.62867772    31.374672 
15540000    1.0004288   0.93316964    29.852106    57001.511   0.62875526     31.33626 
15542000    1.0031567   0.98996742    29.847509    57001.051   0.62876034    31.421984 
15544000   0.99491297    1.0744616    29.843552    56985.454   0.62893243    31.551942 
15546000   0.99686021    1.0291234    29.833557    56980.408   0.62898812    31.469714 
15548000   0.99538035   0.95903821     29.83421    56969.801   0.62910524    31.358658 
15550000    0.9960294    1.0243327    29.839918    56969.324    0.6291105    31.468141 
15552000   0.99808509    1.0306931    29.834275    56961.261   0.62919956    31.472378 
15554000   0.99673897    1.0102521    29.843965    56971.038   0.62909157    31.449855 
15556000    1.0005483    0.9940553    29.851856    56969.117   0.62911278    31.431947 
15558000   0.99664912    1.0485765    29.847825    56974.065   0.62905815    31.514724 
15560000    0.9987994   0.92080156    29.855303    56975.197   0.62904566     31.31911 
15562000    1.0017084    1.0234083    29.853332    56971.504   0.62908643    31.480149 
15564000     1.002759   0.95886119    29.850337    56976.053    0.6290362    31.374671 
15566000    1.0034598    1.0227052    29.847782    56980.413   0.62898807    31.473735 
15568000   0.99704965    1.0107882    29.848692    56975.787   0.62903914    31.455569 
15570000   0.99766746   0.98368386    29.848347    56973.315   0.62906643    31.412067 
15572000   0.99440696   0.98279863    29.843435    56966.676   0.62913975    31.405566 
15574000   0.99766516    1.0244098    29.841435    56958.744   0.62922736    31.469479 
15576000    1.0027364    1.0325134    29.844204    56956.733   0.62924958    31.485068 
15578000    1.0010154   0.99189266    29.842213    56959.281   0.62922142    31.418593 
15580000    0.9988878   0.93585518    29.842527    56964.618   0.62916248    31.329989 
15582000   0.99480423    1.0282182    29.840867    56960.278   0.62921041    31.475008 
15584000   0.99796296   0.93223442    29.833909    56950.407   0.62931947    31.315246 
15586000   0.99810105   0.99225171    29.837033    56946.839    0.6293589     31.41364 
15588000    0.9998574    1.0048859    29.834689    56953.113   0.62928957    31.431547 
15590000   0.99670827    1.0046614    29.844802    56951.459   0.62930785    31.441257 
15592000   0.99729823   0.97957376    29.848759    56962.133   0.62918992     31.40564 
15594000    0.9970929    1.0037958    29.841253    56965.092   0.62915724    31.436714 
15596000    1.0000878    1.0691488    29.853394    56968.469   0.62911995     31.55283 
15598000    1.0041709    1.0706109     29.85025    56976.306   0.62903341    31.552244 
15600000   0.99101693    1.0503092    29.848329    56972.994   0.62906997    31.517951 
15602000   0.99475704    1.0546184    29.832358    56967.113   0.62913491    31.508657 
15604000   0.99608564    1.0231458     29.84466    56974.634   0.62905186    31.471149 
15606000   0.99836997    1.0426945    29.842922    56985.226   0.62893494    31.500796 
15608000   0.99988731    0.9431929    29.851045    56974.132   0.62905742     31.35042 
15610000   0.99797243   0.92004941    29.843153    56973.678   0.62906242    31.305726 
15612000    1.0039838    1.0394434    29.845266    56968.034   0.62912475    31.497471 
15614000   0.99927171   0.98831738    29.850087    56969.846   0.62910474    31.421077 
15616000   0.99977389    1.0174277     29.84376    56969.345   0.62911027    31.461009 
15618000    0.9981534    1.0467565    29.852462    56975.549   0.62904177    31.516511 
15620000   0.99482826    1.0118257    29.841663    56985.303    0.6289341    31.450457 
15622000   0.99420214   0.94245212    29.833484    56969.502   0.62910854     31.33156 
15624000   0.99947966     1.021012    29.834621    56950.478   0.62931869    31.457029 
15626000   0.99884982    1.0008402     29.83842    56946.677   0.62936069    31.428669 
15628000    0.9942528    1.0075397    29.841564    56951.959   0.62930232    31.442606 
15630000   0.99298658    1.0006458    29.839449     56945.99   0.62936829     31.42937 
15632000   0.99248563   0.99237612    29.840025    56923.781   0.62961384    31.416191 
15634000   0.99609632   0.97824967    29.838289    56916.061   0.62969923    31.391808 
15636000   0.99376728   0.97823009    29.838138    56913.545   0.62972707    31.391557 
15638000    1.0031523    1.0174851    29.849728    56932.341   0.62951917    31.466017 
15640000    1.0021623    1.0318154    29.849181    56945.922   0.62936904    31.488626 
15642000    1.0019029   0.94726441    29.847897    56955.967   0.62925804    31.353264 
15644000    1.0005066    1.0421983    29.848859    56953.393   0.62928648    31.505018 
15646000   0.99921199    1.0300588    29.843955    56965.755   0.62914992    31.481178 
15648000    1.0016997   0.98910327    29.848203    56964.887   0.62915951    31.420305 
15650000    1.0054608   0.99962097    29.862159    56967.692   0.62912853    31.451057 
15652000     1.003907    1.0204859     29.85794    56982.096    0.6289695    31.480413 
15654000    1.0020884    1.0012721    29.857515    56995.523   0.62882132    31.449815 
15656000    1.0000107   0.97661385    29.854753    57001.249   0.62875815    31.407995 
15658000   0.99680765    1.0009304     29.84053    56996.477    0.6288108    31.432313 
15660000   0.99721483   0.98638729    29.841444    56991.436   0.62886641     31.40996 
15662000    1.0020597   0.89594056    29.850701     56993.65   0.62884198    31.275448 
15664000    1.0018122   0.96486623    29.848742    57003.417   0.62873424    31.383359 
15666000    0.9985596     1.000369    29.856316    57005.069   0.62871601    31.447446 
15668000    1.0035607    1.0032426    29.851104    57000.204   0.62876968    31.446668 
15670000    1.0022535     1.015915    29.846444    56994.507   0.62883252    31.462002 
15672000    1.0019996   0.98321149    29.851854    56993.389   0.62884486    31.415374 
15674000    1.0019786    1.0544944     29.85183    56996.129   0.62881463    31.528786 
15676000    1.0064217    1.0195376    29.860899    57009.849   0.62866331    31.482654 
15678000    1.0047107    1.0719834    29.861895    57016.126   0.62859409    31.567261 
15680000    1.0080933   0.94497726     29.85902    57022.401   0.62852492    31.362504 
15682000    1.0024913    1.0186159    29.856762    57027.103    0.6284731     31.47754 
15684000   0.99714866    1.0141215    29.851559    57018.178   0.62857147    31.464934 
15686000   0.99954732    1.0269359    29.852054    57003.024   0.62873858    31.485381 
15688000   0.99535481    1.0180576    29.851212    56994.142   0.62883656    31.470166 
15690000    1.0006803    1.0128037    29.850419    56990.591   0.62887574    31.460918 
15692000    0.9962195   0.97237834    29.840598    56978.534   0.62900882    31.386488 
15694000    1.0036896   0.94460095    29.843701    56975.369   0.62904376    31.345347 
15696000    1.0008389    1.0195834    29.851038    56983.052   0.62895894    31.472103 
15698000   0.99973884    1.0424895    29.845095    56985.424   0.62893276    31.502648 
15700000    1.0010605    1.0243609    29.843749    56978.513   0.62900904     31.47228 
15702000   0.99519725    1.0518052    29.846546    56972.819   0.62907191    31.518542 
15704000   0.99425682    1.0519827    29.843579    56958.658   0.62922831    31.515441 
15706000   0.99309315   0.95191887    29.837348    56958.367   0.62923152    31.350176 
15708000    0.9954461   0.97422218    29.837471    56955.616   0.62926192    31.385669 
15710000   0.99534217    1.0070217    29.841878    56954.164   0.62927796    31.442159 
15712000   0.99139397   0.93514323    29.832854    56948.851   0.62933667    31.318773 
15714000   0.99638018     1.091415    29.837735    56944.355   0.62938635    31.571828 
15716000   0.99834013    1.0018857     29.83577    56943.556   0.62939519    31.427593 
15718000   0.99276315   0.97230637    29.837049    56936.042   0.62947824    31.381671 
15720000   0.99232834   0.94761327     29.84425    56932.688   0.62951534    31.349556 
15722000   0.99505859   0.91246485    29.837111    56922.821   0.62962446    31.286332 
15724000    0.9934582   0.97822256    29.834814    56906.962   0.62979992    31.388042 
15726000    0.9917814   0.93464011    29.832643    56907.208    0.6297972    31.316676 
15728000    0.9942728   0.99662752    29.840444    56895.506   0.62992673    31.422577 
15730000   0.99582628    1.0062199     29.83356    56893.569   0.62994818    31.430866 
15732000   0.99646215    1.0609272    29.837761    56896.462   0.62991614    31.521996 
15734000    1.0000093    1.0120606    29.842578    56903.417   0.62983915    31.449433 
15736000    1.0031165    1.0119796    29.848802    56916.309   0.62969649    31.455893 
15738000   0.99888549   0.95309261    29.854592    56917.904   0.62967884     31.36821 
15740000   0.99851393    1.0067264    29.847053    56925.235   0.62959775    31.446053 
15742000   0.99822792   0.99758579    29.840435    56925.678   0.62959285    31.424929 
15744000   0.99620431   0.98749437    29.840733    56915.472   0.62970575    31.408917 
15746000    0.9958895   0.99432804    29.845194     56924.15   0.62960975    31.424471 
15748000   0.99750386   0.97796549    29.842505    56925.156   0.62959862    31.395821 
15750000   0.99169041    1.0636788    29.840662     56931.09     0.629533    31.530294 
15752000   0.99219266    1.0032511    29.833121    56921.969   0.62963388    31.426509 
15754000   0.99553969    1.0042797    29.839546    56918.032   0.62967742    31.434458 
15756000   0.99364494    1.0133782     29.84514    56919.227   0.62966421    31.454535 
15758000   0.99958255    1.0410962    29.852922    56921.179   0.62964262    31.506393 
15760000     1.003804    1.0004826    29.849875    56917.497   0.62968334    31.438742 
15762000   0.99901079    1.0209676     29.84822    56932.665   0.62951558     31.47005 
15764000   0.99873107    1.0647342    29.844672    56925.574     0.629594    31.535817 
15766000   0.99746768   0.99978492    29.845143    56930.697   0.62953734    31.433269 
15768000   0.99470711   0.93111063    29.846202    56926.123   0.62958793    31.325122 
15770000   0.99747327    1.0056528    29.845506     56930.58   0.62953865     31.44295 
15772000    1.0040412    1.0322851    29.853813    56943.221   0.62939889    31.493926 
15774000    1.0016598    1.0076425    29.855947    56949.881   0.62932529    31.457094 
15776000   0.99858399     1.048522    29.851896    56958.904   0.62922559    31.518265 
15778000    1.0004385    1.0221373    29.845673    56964.157   0.62916757     31.47026 
15780000    1.0003789    1.0006142    29.852349    56958.911   0.62922552    31.442581 
15782000    1.0047134    1.0074393     29.84517    56967.325   0.62913258    31.446485 
15784000    1.0032714    1.0244527     29.84639    56959.699    0.6292168     31.47453 
15786000    1.0036115    0.9964577    29.850046    56958.107    0.6292344    31.433649 
15788000    1.0021602   0.98132364    29.848888    56977.168   0.62902389    31.408961 
15790000    1.0029931   0.99078957    29.854789     56981.08   0.62898071     31.43002 
15792000    1.0009228   0.96154487    29.848207    56986.961    0.6289158      31.3771 
15794000    1.0027724   0.94150916     29.85613    56992.549   0.62885414    31.353312 
15796000    1.0008477    1.0429856    29.858277    56986.585   0.62891995    31.516653 
15798000    0.9957997   0.90903283     29.84599    56976.667   0.62902942    31.291126 
15800000   0.99607429   0.96162015    29.850769    56982.786   0.62896188     31.37967 
15802000    1.0023575   0.99374296    29.853605    56986.659   0.62891913    31.433686 
15804000    1.0076822   0.97964859    29.858356    57001.081   0.62876001     31.41642 
15806000    1.0041508    1.0797008    29.859616    56997.457   0.62879998    31.576698 
15808000   0.99882297    1.0132442    29.852502    57005.666   0.62870943    31.464127 
15810000   0.99773875    1.0183382    29.849827    57005.323   0.62871322    31.469545 
15812000    1.0002552   0.98437586     29.84481    56999.346   0.62877915    31.410345 
15814000   0.99041804   0.96416528    29.839938    56990.145   0.62888066    31.373084 
15816000   0.99997175   0.97510558    29.846918    56972.243   0.62907827    31.396973 
15818000   0.99730124     1.072276    29.849979     56971.64   0.62908493     31.55448 
15820000    1.0016386   0.91463325    29.857673    56974.655   0.62905164     31.31166 
15822000    1.0052342     1.024765    29.862995    56977.813   0.62901677    31.492149 
15824000   0.99710003   0.99669412     29.84785    56977.737   0.62901761    31.432375 
15826000   0.99685755   0.99887784    29.840258    56967.512   0.62913051     31.42797 
15828000   0.99854363   0.99504379    29.847145    56962.308   0.62918799    31.428618 
15830000   0.99803308   0.99590733    29.846149    56948.763   0.62933763    31.428619 
15832000   0.99546626    1.0004056    29.845187    56952.071   0.62930108    31.434896 
15834000   0.99391614    1.0054959    29.832369    56951.218   0.62931051    31.430143 
15836000   0.99938341    1.0139861    29.833865    56941.273   0.62942042    31.444849 
15838000    1.0026075    1.0246815    29.851717    56932.311    0.6295195    31.479437 
15840000    1.0014226    1.0188128    29.846264    56934.378   0.62949664     31.46472 
15842000    1.0045429    1.0161125    29.850017    56941.003   0.62942341    31.464372 
15844000   0.99873371   0.95279614     29.85091    56950.517   0.62931826    31.364923 
15846000    1.0020228   0.96155527    29.849795    56949.108   0.62933382    31.377689 
15848000    1.0011459    0.9926409    29.852373    56959.791   0.62921579    31.429957 
15850000    1.0020003    0.9958071    29.859691     56958.17    0.6292337    31.442262 
15852000    0.9953293   0.99691672    29.851856    56961.775   0.62919388    31.436291 
15854000    1.0015405   0.98042953    29.859066    56963.047   0.62917983    31.417332 
15856000   0.99991245    1.0082023    29.858851    56954.678   0.62927228    31.461022 
15858000     1.001038    0.9247529    29.864393    56958.176   0.62923364    31.334043 
15860000    1.0051222   0.99139543    29.860221    56967.432    0.6291314    31.436037 
15862000   0.99880133    1.0007256    29.856441    56970.591   0.62909651    31.447176 
15864000    1.0036138   0.97202322    29.859094    56983.506   0.62895393    31.404554 
15866000    1.0002084   0.95560753     29.85864    56991.944   0.62886081    31.378226 
15868000    1.0047771    1.0140623    29.858895    56991.744   0.62886302    31.471427 
15870000    1.0046592    0.9840056    29.863245    56998.044   0.62879351    31.428156 
15872000    1.0038819    1.0587027    29.856274    57018.874    0.6285638    31.540594 
15874000     1.000205   0.99824823    29.853931    57019.198   0.62856022    31.442082 
15876000     1.001733    1.1373666    29.857218     57014.17   0.62861566    31.666538 
15878000    1.0031521    1.0673084     29.84969    57009.039   0.62867224    31.547408 
15880000    1.0030642   0.97987792    29.854537    57010.187   0.62865958    31.413215 
15882000    1.0041138   0.99230876    29.861608    57008.142   0.62868212    31.440003 
15884000    1.0052395     1.003965    29.862813    57025.074   0.62849546    31.460223 
15886000    1.0063523    1.0436149    29.871952     57039.52   0.62833628    31.532869 
15888000    1.0074317    1.0356154     29.86053    57056.643   0.62814772    31.509212 
15890000    1.0077781     1.026703    29.864233    57075.011   0.62794556    31.499252 
15892000    1.0055341    1.0191919    29.872151    57078.301   0.62790937    31.495302 
15894000    1.0063148    1.0309192    29.870386    57086.632   0.62781774    31.512453 
15896000    1.0080142   0.99996076    29.863549    57079.204   0.62789944    31.456098 
15898000    1.0043315   0.94807164    29.861795    57062.158     0.628087    31.371255 
15900000    1.0056458   0.91472322    29.862737    57051.301   0.62820653    31.318824 
15902000    1.0036278   0.99400591    29.869565    57046.974   0.62825418    31.451736 
15904000    1.0060724    1.0627205    29.862924    57051.146   0.62820824    31.554593 
15906000    1.0086363    1.0106934    29.863572    57070.077   0.62799986    31.472957 
15908000    1.0087427   0.92629019    29.864858    57059.248   0.62811903    31.339563 
15910000    1.0091693    1.0476759     29.87211    57060.042    0.6281103    31.540091 
15912000    1.0065683    0.9125222    29.856916    57050.481   0.62821556    31.309478 
15914000    1.0056467    1.0165053    29.856103    57046.238   0.62826229    31.474066 
15916000    1.0076935    1.0014713      29.8613    57043.435   0.62829315    31.455255 
15918000     1.005739   0.97611682    29.856444    57031.333   0.62842648    31.409716 
15920000     1.001471   0.97198162    29.857428    57027.115   0.62847296    31.404004 
15922000   0.99751422    0.9483836    29.862817    57035.379    0.6283819    31.372064 
15924000    1.0019403    1.0381245    29.856188    57043.441   0.62829309    31.508481 
15926000    1.0007504    1.0046295    29.849627    57039.462   0.62833693    31.448498 
15928000   0.99971368   0.96622778    29.851936     57023.19   0.62851622    31.389252 
15930000   0.99955905    1.0237636    29.846708    57004.833   0.62871862    31.475042 
15932000   0.99505637   0.95997721    29.849504    57001.787   0.62875221    31.376301 
15934000    1.0040925   0.93585117    29.855973    57004.782   0.62871918    31.344478 
15936000   0.99945909   0.98452846    29.849742    57007.101   0.62869361    31.415733 
15938000   0.99930147   0.94423797    29.847996    57004.773   0.62871929    31.349839 
15940000   0.99447004   0.99204941    29.844241    57009.535   0.62866676    31.422262 
15942000   0.99328717    1.0328193    29.838153     57002.93   0.62873961    31.480835 
15944000   0.99721885   0.98564055    29.840858    56995.206   0.62882481     31.40829 
15946000   0.99362716   0.96767328    29.839522    56976.805    0.6290279    31.377885 
15948000   0.99574722   0.98167654      29.8382    56959.038   0.62922411    31.398338 
15950000   0.99092577    1.0496072    29.836883    56951.787   0.62930422    31.504768 
15952000   0.99579288    1.0097353    29.841618    56947.219   0.62935471    31.446016 
15954000   0.99593148   0.97762678    29.838817    56938.786   0.62944791    31.391967 
15956000    1.0013499   0.90649699    29.844565    56926.556   0.62958314    31.284402 
15958000   0.99224058   0.96726368    29.839907    56915.274   0.62970794    31.375959 
15960000   0.99565994   0.99628492    29.836913     56913.82   0.62972403     31.41901 
15962000   0.99737467    1.0306214    29.843073     56906.48   0.62980526    31.479486 
15964000   0.99707822   0.96178168    29.850782    56907.601   0.62979284    31.377922 
15966000   0.99675834   0.99614852    29.844571    56919.738   0.62965855    31.426617 
15968000   0.99939459     1.033584    29.849214    56923.258   0.62961962    31.490815 
15970000    1.0005997    1.0307415    29.854292    56925.225   0.62959787    31.491435 
15972000   0.99364219   0.96944316    29.841657    56926.531   0.62958342    31.381474 
15974000   0.99243803     1.033145    29.838107    56918.284   0.62967464    31.478867 
15976000   0.99873627    1.0120195    29.852901    56924.039   0.62961098    31.460274 
15978000    1.0066828   0.97814988    29.858731    56935.727   0.62948173    31.412629 
15980000    1.0017033     1.014583    29.849771    56948.987   0.62933516    31.461921 
15982000   0.99709649    1.0076386    29.848103    56960.945   0.62920304    31.449555 
15984000   0.99901853    1.0291147     29.84703    56961.073   0.62920163    31.482618 
15986000    0.9990385   0.96798114    29.847887    56959.111   0.62922331    31.386262 
15988000    1.0043857    1.0057247    29.850756    56972.277    0.6290779    31.449485 
15990000    1.0045214    1.0251348    29.856851     56977.92   0.62901559    31.486596 
15992000    1.0029136   0.99401326      29.8581    56991.839   0.62886197    31.438754 
15994000    1.0078944   0.97760602    29.863315    56999.684   0.62877542    31.418093 
15996000    1.0054175   0.96033474    29.852754    56995.781   0.62881847    31.379959 
15998000    1.0004157    1.0045534    29.854096    56991.551   0.62886514    31.451502 
16000000   0.99620244    1.0037017    29.853955     56980.97   0.62898192    31.449711 
16002000    1.0013563   0.93627628      29.8521    56975.994   0.62903686    31.340528 
16004000    1.0031843   0.97502797    29.850028    56978.279   0.62901163    31.400123 
16006000    1.0024934   0.93680253    29.857256     56984.36    0.6289445    31.346739 
16008000   0.99846854   0.95444208    29.846272    56995.573   0.62882077    31.364101 
16010000   0.99932469    1.0173363    29.848672    56989.021   0.62889307    31.466334 
16012000    1.0007436    1.0298638    29.857848    56990.486    0.6288769    31.495472 
16014000    1.0022991    1.0004748    29.849151    56978.541   0.62900874    31.439709 
16016000    1.0029002   0.97540708    29.854165      56976.5   0.62903127    31.404814 
16018000    1.0011575     0.990739    29.850392    56974.435   0.62905406    31.425358 
16020000    1.0011701   0.95783225    29.850294    56983.181   0.62895752    31.373183 
16022000   0.99729268    1.0297767    29.847912    56984.818   0.62893944    31.485234 
16024000   0.99994809    1.0068092    29.855764    56979.792   0.62899493    31.456428 
16026000    0.9999105    1.0725011    29.848499    56982.671   0.62896315    31.553688 
16028000   0.99560751   0.92938885    29.844566    56974.061   0.62905819    31.321995 
16030000   0.99568195   0.97616498     29.84357    56960.774   0.62920493    31.394997 
16032000   0.99440084   0.97480371    29.845629    56953.372   0.62928671    31.394691 
16034000    1.0011919   0.95447416    29.848588    56950.157   0.62932223    31.365258 
16036000   0.99577927      1.00266    29.842217    56957.338   0.62924289    31.435656 
16038000   0.99312084   0.96065752     29.84529    56948.346   0.62934225    31.371737 
16040000   0.99955464   0.97958043    29.842485    56940.629   0.62942754    31.398789 
16042000    0.9906403   0.97964766    29.840632    56943.703   0.62939356    31.397127 
16044000   0.99778406    1.0092049    29.839828    56939.228   0.62944303    31.443158 
16046000   0.99772924   0.97516496    29.850024    56946.146   0.62936656    31.399462 
16048000   0.99402526    1.0560912    29.845439      56951.6   0.62930629    31.523622 
16050000     1.001155    1.0306992    29.844945    56961.545   0.62919642    31.483064 
16052000    1.0041536    1.0011791    29.857835    56969.755   0.62910574    31.449267 
16054000   0.99807454    1.0924482    29.842914    56965.965    0.6291476    31.579308 
16056000    0.9989217   0.99028208    29.850343    56967.538   0.62913022    31.424392 
16058000    1.0022942    1.0245819    29.859744    56972.062   0.62908026    31.488442 
16060000    1.0002667    1.0609012    29.855452    56982.633   0.62896357    31.542197 
16062000    1.0047929    1.0183695    29.860255    56984.292   0.62894525    31.479426 
16064000    1.0022875    1.0744733    29.859341    56992.121   0.62885885    31.567949 
16066000    1.0085797   0.99238318     29.86472     56992.97   0.62884949    31.442814 
16068000    1.0082823   0.99016197    29.866101    57010.509   0.62865603    31.441147 
16070000    1.0058574   0.97773703    29.864564    57021.047   0.62853984    31.420133 
16072000     1.002815    1.0526722    29.862851    57014.994   0.62860657    31.537463 
16074000     1.007164   0.93850013    29.857742    57031.978   0.62841937    31.351171 
16076000    1.0030486    1.0727049    29.848941    57033.862   0.62839862    31.555986 
16078000    1.0050237   0.96374827    29.857949    57033.949   0.62839766    31.391609 
16080000    1.0020397    1.0437285    29.862562    57024.745   0.62849909     31.52323 
16082000    1.0003775    1.0650801    29.853549      57017.4   0.62858004    31.547971 
16084000   0.99984951    1.0207901    29.852742    57009.727   0.62866465    31.476486 
16086000    1.0027249   0.97901182    29.858106    57002.812   0.62874091    31.415205 
16088000   0.99691484    1.0470688    29.840455    56997.263   0.62880212    31.505635 
16090000    0.9960752    1.0357984    29.852752    56988.832   0.62889515    31.499764 
16092000   0.99686577    1.0064484    29.844276    56983.952   0.62894901    31.444483 
16094000   0.99622047   0.97764473    29.845588    56980.189   0.62899055    31.399896 
16096000   0.98963558    1.0356439    29.834427    56964.134   0.62916782     31.48048 
16098000   0.99366718   0.96481896    29.844139    56955.863   0.62925918      31.3774 
16100000   0.99664185    1.0754981    29.836618    56943.935   0.62939099     31.54541 
16102000   0.99886415   0.95848273    29.846127    56938.737   0.62944845    31.368861 
16104000    1.0020889   0.95211865    29.845868    56936.738   0.62947055    31.358438 
16106000   0.99842947     1.032001    29.843938     56938.19    0.6294545    31.483455 
16108000   0.99798024   0.97803644    29.842907    56945.752   0.62937091    31.396898 
16110000    1.0019238    1.0124394    29.850731    56947.591   0.62935059    31.459436 
16112000    1.0034228    0.9829339    29.852887    56955.286   0.62926556    31.414921 
16114000     1.006011    1.0494899    29.854237    56951.818   0.62930388    31.521937 
16116000    1.0014165   0.97103324    29.858607    56950.371   0.62931987    31.401596 
16118000    1.0059327     1.007036    29.851478    56957.219   0.62924421    31.451868 
16120000    1.0082022   0.97312057    29.860104     56973.52   0.62906417    31.407038 
16122000     1.006221    1.0145418    29.863753    56976.792   0.62902805    31.476625 
16124000    1.0027326    1.0432689    29.854816    56976.774   0.62902824    31.513357 
16126000    1.0051672    1.0729102    29.855763     56978.42   0.62901007    31.561475 
16128000    1.0014549    1.0571687    29.849889    56985.271   0.62893445    31.530777 
16130000    1.0022285   0.97821593    29.844739    56977.564   0.62901952    31.399883 
16132000    0.9992564    1.0362002     29.85297    56977.347   0.62902191     31.50029 
16134000    1.0034048    1.0537833    29.854592    56977.759   0.62901737    31.529877 
16136000    1.0036724   0.99324979    29.860599    56977.273   0.62902274    31.439636 
16138000    1.0015378    1.0026056    29.858605    56980.384   0.62898839    31.452602 
16140000   0.99701136   0.96356242    29.846568     56986.47   0.62892122    31.378656 
16142000   0.99839403    1.0645834    29.851395    56983.507   0.62895391    31.544021 
16144000   0.99902722   0.97806743    29.855235    56988.079   0.62890346     31.41043 
16146000    1.0000751    0.9898768    29.855774    56996.757    0.6288077    31.429986 
16148000    1.0019225   0.99657103    29.850106    57006.127   0.62870435    31.435225 
16150000    1.0070614   0.97010627    29.849966    57005.749   0.62870852     31.39298 
16152000    1.0000893   0.99877439      29.8527    57013.305   0.62862519    31.441523 
16154000    1.0004871    0.9855527    29.859202    57009.957   0.62866212    31.426901 
16156000    1.0072302    1.0163378    29.864266    57006.954   0.62869523    31.480848 
16158000   0.99713797    0.9908448    29.852747    57008.471    0.6286785    31.428823 
16160000   0.99801486   0.94097445    29.844586    57009.286   0.62866951    31.341357 
16162000   0.99847171   0.97166835    29.847148    57000.384   0.62876769    31.392501 
16164000   0.99768249   0.99556711    29.852908    56991.201   0.62886901    31.436015 
16166000    1.0036716   0.99790384    29.851805    56975.161   0.62904605    31.438182 
16168000    1.0025788   0.98755515    29.855579    56971.092   0.62909097    31.425392 
16170000    1.0045091    1.0200822    29.857359     56976.04   0.62903634    31.479017 
16172000    1.0064913     1.046569    29.856261    56989.225   0.62889081    31.520412 
16174000    1.0017696   0.99892532    29.861241    57001.057   0.62876027    31.449963 
16176000      1.00278   0.93740841    29.857653    57007.621   0.62868788    31.348708 
16178000    1.0038086    1.0469331    29.861477    57010.393   0.62865731    31.526824 
16180000    1.0067514   0.95506897     29.86323    57019.692   0.62855478    31.382699 
16182000    1.0014484   0.96918511    29.850757    57020.936   0.62854107    31.392717 
16184000   0.99602642    1.0108908    29.854732    57027.095   0.62847318    31.463218 
16186000    0.9981827     1.020674    29.844299    57022.842   0.62852006    31.468232 
16188000      1.00201   0.97976904    29.852336    57010.121   0.62866031    31.410839 
16190000    1.0027517   0.96373332    29.853801    57008.216   0.62868131    31.386745 
16192000    1.0016757   0.97896765    29.857287    56997.465    0.6287999    31.414169 
16194000    1.0004636   0.98975851     29.84965    57010.005   0.62866159     31.42404 
16196000     1.001616    1.0098212    29.852757    57018.281   0.62857033    31.459294 
16198000   0.99649963   0.97732537    29.850596    57019.781    0.6285538    31.405475 
16200000   0.99228287    1.0256309     29.84789    57008.282   0.62868058    31.479292 
16202000   0.99843507    1.0029648    29.846311    57003.722   0.62873088    31.441532 
16204000    1.0001379    1.0470925    29.847993    56988.483     0.628899    31.512954 
16206000   0.99362716    1.0449178    29.836636     56975.28   0.62904474    31.497755 
16208000   0.99556948   0.94622018    29.845732    56956.717   0.62924975    31.349459 
16210000    1.0002378    1.0135233    29.841072    56945.931   0.62936894    31.451452 
16212000    0.9943973    1.0225307    29.841921    56947.716   0.62934921    31.466664 
16214000   0.99692867   0.98390605    29.842336    56934.422   0.62949616    31.405342 
16216000     1.002153    1.0005513    29.846681    56923.632   0.62961548    31.435828 
16218000   0.99708554   0.99508278    29.841826    56927.904   0.62956824    31.422406 
16220000   0.99191508   0.98137611    29.840688    56919.727   0.62965868    31.399272 
16222000   0.99734312   0.98443324    29.846901    56924.715    0.6296035    31.410477 
16224000   0.99779799    1.0019921    29.857893    56930.999   0.62953401    31.449534 
16226000   0.99743436    1.0322734     29.84481    56927.668   0.62957085    31.484456 
16228000   0.99687798   0.95902315    29.840814    56944.087   0.62938932     31.36455 
16230000   0.99784405    1.0447916    29.847481    56954.995   0.62926878    31.507807 
16232000    1.0029143   0.96423438    29.855567    56970.818     0.629094    31.388302 
16234000   0.99560278     1.010589    29.847352    56972.278   0.62907789    31.453812 
16236000   0.99980541   0.91294374    29.846984    56971.337   0.62908827    31.298202 
16238000    1.0000708   0.94583795    29.848487    56973.383   0.62906568    31.352047 
16240000   0.99684844   0.98184623    29.842082    56970.969   0.62909233    31.402816 
16242000    1.0007358   0.90442431    29.843679    56965.784    0.6291496    31.281214 
16244000    1.0003172    1.0535312    29.846071    56961.327   0.62919883    31.520472 
16246000   0.99873428   0.93053494    29.853701    56954.321   0.62927623     31.33244 
16248000   0.99907518    1.0167838    29.842059     56963.19   0.62917824     31.45811 
16250000    0.9983274    1.0216511    29.848072    56957.684   0.62923906    31.471701 
16252000    1.0006084    1.0196127    29.844777    56956.356   0.62925374    31.465129 
16254000   0.99719971    1.0378179    29.847826    56956.479   0.62925239    31.497114 
16256000   0.99694253   0.91747677    29.844114    56954.687   0.62927218     31.30211 
16258000   0.99831714   0.93598671      29.8437    56954.248   0.62927703      31.3311 
16260000    0.9985449   0.92717318     29.84993    56951.175   0.62931098    31.323245 
16262000   0.99887344    0.9810628    29.841396    56954.231   0.62927722    31.400427 
16264000   0.99835383    1.0393675     29.84273    56953.341   0.62928705    31.494389 
16266000   0.99387332     1.014956    29.838864    56946.953   0.62935764     31.45155 
16268000     1.001968    0.9287503    29.840782    56934.508   0.62949521    31.316171 
16270000   0.99832639   0.98367222    29.838417    56939.731   0.62943747    31.401197 
16272000   0.99762662    1.0314656    29.842689    56933.624   0.62950498    31.481223 
16274000    1.0027217   0.95413482    29.857412    56927.689   0.62957061    31.372945 
16276000   0.99838428    1.0541327     29.84385    56933.226   0.62950938    31.518381 
16278000    1.0011131     1.042818    29.849317     56943.31    0.6293979    31.506167 
16280000    1.0043962   0.94543444    29.851506    56954.588   0.62927327    31.353928 
16282000   0.99773761   0.97716646    29.844199     56955.51   0.62926309    31.397073 
16284000   0.99947552    1.0058756    29.847376    56952.472   0.62929665    31.445789 
16286000    1.0055782    1.0283507    29.844288    56954.169    0.6292779    31.478464 
16288000   0.99854309    1.0206824    29.843821    56957.351   0.62924275    31.465902 
16290000   0.99854528    1.0012984    29.845801    56953.648   0.62928365    31.436973 
16292000    1.0013797    1.0121983    29.844309    56946.265   0.62936524    31.452594 
16294000   0.99584943   0.99225111    29.845591    56944.324    0.6293867    31.422128 
16296000   0.99843699   0.94891762    29.846456    56936.907   0.62946869    31.353946 
16298000    0.9999144    1.0382688    29.847773    56933.028   0.62951157    31.497097 
16300000    1.0005214   0.97686836    29.857415    56947.863   0.62934759    31.409607 
16302000   0.99316914   0.95826267    29.854669    56952.663   0.62929454    31.377426 
16304000    0.9998488   0.98226257    29.853583    56960.182   0.62921147    31.414684 
16306000   0.99913599    1.0072545     29.85495     56956.84   0.62924839    31.455677 
16308000    1.0007248   0.98556023    29.846207    56966.629   0.62914026    31.412726 
16310000   0.99553538    1.0304629    29.840579    56965.697   0.62915056    31.478443 
16312000   0.99632081   0.93497238    29.837986    56955.728   0.62926067    31.323813 
16314000   0.99494823    1.0578724    29.847126    56961.393   0.62919809    31.528429 
16316000    1.0005299    1.0478875    29.851376    56965.693    0.6291506    31.516935 
16318000    1.0005293    1.0195735    29.858061    56975.738   0.62903968    31.478902 
16320000    1.0018962   0.99719461    29.858435    56984.099   0.62894738    31.443932 
16322000   0.99544044    0.9930979     29.85467    56995.164   0.62882528    31.433961 
16324000    1.0027529    1.0338537    29.854655    56995.591   0.62882057    31.498771 
16326000    1.0030104    1.0019248    29.864878    57002.441   0.62874501    31.458409 
16328000    1.0025455    1.0117574    29.860426    57003.666   0.62873149     31.46963 
16330000    1.0050382    1.0447703    29.850066    57003.891   0.62872901    31.511784 
16332000    1.0021453    1.0416225    29.852551    56997.984   0.62879417     31.50909 
16334000    1.0040225    1.0064997    29.859699    56996.805   0.62880717    31.460348 
16336000    1.0029984   0.91747491    29.859745    56990.309   0.62887885     31.31865 
16338000    1.0070011   0.99499831    29.865824    56984.261    0.6289456    31.447834 
16340000    1.0034199    1.0973241    29.855508    56981.453   0.62897659    31.600126 
16342000    1.0046575    1.0612963    29.856211    56982.039   0.62897012    31.543567 
16344000    1.0077108    1.0432963    29.865582    56991.996   0.62886023    31.524609 
16346000    1.0015603    1.0581162    29.860135     56996.26   0.62881319    31.542854 
16348000   0.99952906   0.96828827    29.862057    56991.696   0.62886354      31.4018 
16350000    1.0039699   0.96735096    29.852407    56990.191   0.62888015    31.390619 
16352000    1.0027971    1.0125728    29.861368     56988.45   0.62889937    31.471439 
16354000    1.0063537    0.9562726    29.855405    56979.491   0.62899824    31.375716 
16356000    1.0023828    0.9869861    29.848214    56989.106   0.62889212    31.417619 
16358000    1.0025791     0.938438    29.848009    56990.421   0.62887761    31.340252 
16360000   0.99631114   0.97840512    29.841521    56984.136   0.62894698    31.397145 
16362000   0.99468323     1.062218    29.841865    56981.982   0.62897075    31.530684 
16364000   0.99360026   0.93912019    29.843327    56978.436   0.62900989     31.33634 
16366000   0.99412456    1.0277836    29.836097     56972.94   0.62907058    31.469909 
16368000    1.0000221    1.0282973    29.844117    56974.119   0.62905756     31.47878 
16370000   0.99913856    1.0177113    29.851329    56965.551   0.62915217    31.468921 
16372000   0.99737805   0.95916117    29.850524    56966.845   0.62913788    31.375088 
16374000    1.0023825    1.0766383    29.847319    56974.585   0.62905241    31.558843 
16376000   0.99613661    1.0745493    29.850272    56978.121   0.62901337    31.558582 
16378000    1.0002118   0.99041209    29.849008     56972.74   0.62907278    31.423408 
16380000   0.99992602    1.0448554    29.849343    56969.186   0.62911203    31.510185 
16382000    1.0051711     1.037931    29.850875    56982.167   0.62896871    31.501086 
16384000    1.0057523    1.0052571    29.865448    56981.286   0.62897843    31.463685 
16386000    1.0050725    1.0057836    29.866418    56970.982   0.62909219    31.465204 
16388000    1.0023754    1.0482341    29.856518    56983.463    0.6289544    31.523148 
16390000    1.0060101     1.010409     29.85902    56995.532   0.62882122     31.46585 
16392000    1.0035358   0.93644974    29.856846    56999.058   0.62878232    31.346153 
16394000    1.0004168   0.98664943    29.846277    57008.427   0.62867898    31.415678 
16396000    1.0037434    1.0396533    29.855496    57013.423   0.62862389    31.509352 
16398000    1.0017071     1.072133    29.854683    56996.539   0.62881011    31.559701 
16400000     1.004093   0.99988444    29.864253    56993.372   0.62884505    31.454286 
16402000    1.0030206   0.99957226    29.860952    56992.399   0.62885578    31.450461 
16404000    1.0042142    1.0598531    29.856229    57004.999   0.62871679    31.541969 
16406000   0.99954083    1.0535683    29.855795    57002.463   0.62874477    31.531465 
16408000     1.004156    1.0094574     29.85764    56991.451   0.62886625    31.462843 
16410000    1.0025436    1.0822779    29.849255    56991.736   0.62886311    31.570262 
16412000    1.0034914   0.95584229    29.851179    56989.772   0.62888478    31.371079 
16414000    1.0009225   0.96695136    29.856363    56991.815   0.62886223    31.393984 
16416000   0.99814289    0.9690613    29.849124    56990.943   0.62887185    31.390076 
16418000   0.99885937    1.0525139    29.852201    56980.048    0.6289921    31.525535 
16420000   0.99402539    1.0568999    29.842667    56983.096   0.62895846    31.523064 
16422000   0.99817597   0.97837387    29.845428    56973.884   0.62906015    31.400722 
16424000   0.99567485   0.98185282    29.843408     56968.19   0.62912303    31.404077 
16426000    1.0001522    1.0121876    29.843696    56962.301   0.62918806    31.452416 
16428000    1.0008421   0.92070655    29.846326    56961.469   0.62919725    31.309629 
16430000    1.0009808   0.97914128    29.853039     56959.19   0.62922243    31.409152 
16432000   0.99762351    1.0025046    29.854287    56954.433   0.62927498    31.447398 
16434000   0.99839473    1.0105853     29.85076    56951.589   0.62930641    31.456632 
16436000    1.0004705   0.97828131    29.847831    56953.265   0.62928789    31.402416 
16438000   0.99996564   0.95394704    29.849558    56961.452   0.62919745    31.365691 
16440000    1.0044559    1.0586796     29.85267    56971.144    0.6290904    31.535544 
16442000    1.0011035   0.93615586     29.85175    56977.461   0.62902065    31.340025 
16444000    1.0002315   0.99746901    29.848142    56977.144   0.62902415    31.433882 
16446000   0.99916783    1.0249641    29.845656    56976.926   0.62902656    31.475101 
16448000   0.99621516    1.0293475     29.84483    56970.034   0.62910267    31.481045 
16450000   0.99731338   0.96432681     29.84932    56960.856   0.62920403    31.381934 
16452000   0.99269738   0.93336938    29.834327    56946.411   0.62936363    31.317364 
16454000   0.99220328   0.99893613    29.839438    56932.062   0.62952225    31.426255 
16456000   0.99667865   0.96298925    29.846058    56932.966   0.62951226    31.375797 
16458000   0.99768781    1.0027357    29.843664    56935.952   0.62947924    31.436625 
16460000    0.9909266   0.96133599    29.836618    56930.934   0.62953472    31.363676 
16462000   0.99798719    1.0657134    29.842851    56924.387   0.62960713    31.535515 
16464000   0.99211435   0.95034995    29.845326    56921.859    0.6296351    31.354692 
16466000   0.99267254   0.96452933    29.847774    56906.604   0.62980387     31.37925 
16468000   0.99827955    1.0514887    29.844987    56915.075   0.62971014    31.514785 
16470000   0.99647142    1.0044534    29.840076    56926.301   0.62958596    31.435495 
16472000   0.99641674   0.95645455     29.84914    56922.121    0.6296322    31.368209 
16474000    1.0007131    1.0543815    29.853459    56925.842   0.62959104    31.528168 
16476000    1.0019519    1.0373602     29.84216    56938.072    0.6294558    31.490187 
16478000    0.9944107   0.97857273     29.84151    56946.322   0.62936461    31.396368 
16480000   0.99700326   0.98876182    29.844173    56940.829   0.62942532    31.415069 
16482000   0.99650696   0.98569213    29.847946    56934.834   0.62949161    31.413801 
16484000   0.99810012    1.0061137    29.838369    56939.577   0.62943916    31.436797 
16486000   0.98983405    1.0150463    29.835473    56930.194   0.62954291    31.447827 
16488000     1.000323    1.0709491    29.847495    56924.304   0.62960805    31.548473 
16490000    0.9957904   0.95965939    29.846334    56932.155   0.62952123    31.370762 
16492000    1.0010239   0.98083848    29.850106    56938.458   0.62945154    31.408349 
16494000    1.0046175    1.0510857    29.857119    56940.357   0.62943055    31.527019 
16496000    1.0012079     1.024048    29.851788     56952.79   0.62929314    31.479087 
16498000    1.0024606   0.95280182     29.86277    56959.712   0.62921666    31.377037 
16500000    1.0018796   0.97656313     29.85479    56964.125   0.62916792     31.40694 
16502000    1.0037032    1.0548996    29.851122    56979.989   0.62899275    31.528247 
16504000   0.99780653   0.94562896    29.851842    56984.661   0.62894118    31.355367 
16506000    1.0021739   0.99659888    29.852876    56984.428   0.62894375    31.437436 
16508000     1.001499    1.0331633    29.857688    57001.777   0.62875232    31.500884 
16510000   0.99785479    1.0529112    29.847604     56999.58   0.62877656    31.522143 
16512000   0.99992225    1.0052177    29.844261    57001.749   0.62875264     31.44301 
16514000   0.99656329    1.0163958    29.847226    56998.465   0.62878886     31.46366 
16516000   0.99966714   0.98162856    29.846627    56993.554   0.62884304    31.407634 
16518000   0.99484568    1.0095524    29.839456    56984.073   0.62894767    31.444601 
16520000    0.9960972    1.0255824    29.844986    56966.602   0.62914056    31.475118 
16522000   0.99491905   0.99765947    29.833053    56962.261   0.62918851    31.418681 
16524000   0.99196309    1.0277687    29.837464    56947.732   0.62934903     31.47053 
16526000   0.99177607    1.0346177    29.841119    56945.609   0.62937249    31.485007 
16528000    1.0007702   0.97267597    29.848884    56939.778   0.62943695    31.394195 
16530000   0.98886706    1.0304994    29.838079    56933.234    0.6295093    31.475067 
16532000   0.99319092    1.0385999    29.837312    56933.127   0.62951048    31.487165 
16534000   0.99103333   0.98652234    29.837328    56920.517   0.62964994    31.404107 
16536000    1.0013825   0.99148855    29.840134    56920.714   0.62964776    31.414805 
16538000    0.9976894   0.98881361    29.847206    56920.995   0.62964465    31.417637 
16540000    1.0008557   0.92090242    29.847074    56925.875   0.62959068    31.309774 
16542000   0.99765463   0.98394153     29.84768    56937.014   0.62946751    31.410814 
16544000    1.0005429    1.0245433    29.849434    56934.165     0.629499    31.476987 
16546000   0.99570413   0.99522303    29.850735    56938.892   0.62944674    31.431843 
16548000   0.99694361    1.0251507     29.85119    56937.143   0.62946608    31.479794 
16550000   0.99593272   0.98918656    29.844604    56926.696    0.6295816    31.415785 
16552000    1.0008599    1.0853313    29.848896    56928.174   0.62956525    31.572834 
16554000    1.0059711    1.0108506    29.852902    56943.855   0.62939188    31.458978 
16556000    1.0043822   0.94822477    29.857128    56950.706   0.62931616    31.363883 
16558000    1.0020565    1.0037695    29.861962    56961.766   0.62919397    31.457288 
16560000    1.0076423    1.0635402    29.864465    56974.196   0.62905671    31.555156 
16562000    1.0046697   0.93299352    29.860052     56987.69   0.62890775    31.343566 
16564000   0.99970142   0.93380913    29.862018    56988.039    0.6289039    31.346838 
16566000    1.0084253    1.0400281    29.867369    57001.179   0.62875893    31.521466 
16568000    1.0016559   0.97720827    29.861578     57018.45   0.62856847    31.416234 
16570000    1.0050004    0.9964885    29.858621    57018.184    0.6285714    31.443944 
16572000    1.0017043    1.0114898    29.850277    57019.076   0.62856157     31.45949 
16574000    1.0026705    1.0312039     29.86106    57024.034   0.62850692     31.50178 
16576000   0.99521894    1.0280262    29.851221    57018.656    0.6285662     31.48673 
16578000   0.99752649    0.9699756    29.845212     57010.01   0.62866153    31.388134 
16580000   0.99671115    0.9857734    29.848225    57007.519   0.62868899    31.416208 
16582000    1.0023345     1.026196    29.850641    57008.215   0.62868132     31.48294 
16584000   0.99769332   0.98030765    29.855439    56997.374   0.62880089     31.41445 
16586000   0.99954991   0.98750708    29.852336    56991.469   0.62886605    31.422634 
16588000   0.99622868   0.97576883    29.846404    56987.161   0.62891359    31.397919 
16590000    1.0018289     1.088268    29.845817    56981.558   0.62897543     31.57604 
16592000   0.99895027    1.0422316    29.850785    56983.804   0.62895064    31.507881 
16594000   0.99830106    1.0803992     29.84108    56988.566   0.62889808    31.559004 
16596000    0.9977817    0.9906162    29.844964    56985.631   0.62893048    31.420044 
16598000   0.99767539    1.0029453    29.842214     56966.79   0.62913848    31.436371 
16600000   0.99725481    1.0214441    29.843663    56944.524   0.62938448    31.466588 
16602000   0.99411935   0.98432181    29.837495    56935.338   0.62948603    31.401186 
16604000   0.99036814    1.0134078    29.844057    56928.577   0.62956079    31.453763 
16606000    1.0041654   0.93089268    29.848308    56924.058   0.62961077    31.326829 
16608000    1.0014579    1.0090256    29.846571    56926.312   0.62958584    31.449253 
16610000   0.99435405     1.038771    29.839681    56923.578   0.62961608     31.48953 
16612000   0.99189047    0.9514925    29.843871    56924.496   0.62960592    31.355122 
16614000    1.0007727   0.97467741    29.844078    56920.992   0.62964468    31.392058 
16616000   0.99935105    1.0333532    29.847312    56933.197    0.6295097    31.488832 
16618000   0.99995168     1.000265      29.8472    56957.292    0.6292434    31.436832 
16620000    1.0002805    1.0455221    29.836912    56969.546   0.62910805    31.498823 
16622000    1.0007152    1.0094731     29.85581    56969.417   0.62910947    31.460416 
16624000    1.0007878    1.0676216    29.848447    56970.477   0.62909777    31.545515 
16626000   0.99821937    1.0357906    29.849097    56967.639    0.6291291    31.495485 
16628000    1.0024757    1.0499372    29.844637    56974.494   0.62905341    31.513712 
16630000     1.001668   0.94216066     29.85792    56980.336   0.62898892    31.355817 
16632000    1.0018536   0.89857595    29.855079    56990.922   0.62887209    31.283948 
16634000    1.0034589    1.0303206    29.850388    56990.827   0.62887314    31.488748 
16636000    1.0043007    1.0168094    29.849661    56989.894   0.62888343     31.46651 
16638000     1.003815    1.0690833    29.847819    56991.467   0.62886607    31.547837 
16640000    1.0029488    1.0616693    29.855125    56999.252   0.62878018    31.543584 
16642000    1.0000251   0.95254945    29.856633    57001.431   0.62875614    31.371607 
16644000    1.0047524   0.97022396    29.862403    56992.353    0.6288563    31.405242 
16646000    1.0082008   0.98387415    29.856614    56995.029   0.62882677    31.421232 
16648000    1.0050945    1.0351482    29.854352    56996.322    0.6288125    31.500548 
16650000   0.99906274   0.92512137    29.857653     56987.41   0.62891085    31.328643 
16652000    1.0034078    1.0248762    29.847256    56982.846   0.62896121     31.47673 
16654000   0.99642043   0.96738267    29.856136    56983.661   0.62895221    31.394222 
16656000    1.0013347    1.0106529    29.849674    56991.132   0.62886976    31.456769 
16658000    1.0025179     1.000093    29.855798     56987.14   0.62891383    31.445989 
16660000    1.0034578   0.93791355    29.856382    56985.251   0.62893467    31.347655 
16662000    1.0036462    1.0307399    29.851547    56990.437   0.62887743    31.490563 
16664000    1.0007817    1.0134665    29.854501    56988.058   0.62890369    31.465982 
16666000   0.99899341   0.92133436    29.850147    56983.054   0.62895892    31.315003 
16668000   0.99782155   0.99439989    29.845254    56972.418   0.62907634    31.425984 
16670000   0.98802256   0.98288881    29.837368    56964.582   0.62916287    31.399585 
16672000   0.99591226   0.91741144    29.832523     56953.35   0.62928695    31.290382 
16674000   0.99186894   0.98355037    29.840572    56944.317   0.62938677    31.403284 
16676000   0.99682516   0.93847315    29.846872    56933.592   0.62950534    31.337683 
16678000   0.99428252   0.99033933    29.832182    56930.815   0.62953604    31.405307 
16680000   0.99475335    1.0002244     29.84037    56925.388   0.62959606    31.429047 
16682000   0.98848068   0.98938175    29.830758    56915.242   0.62970829    31.401933 
16684000   0.99210041    1.0212734    29.837779    56907.548   0.62979344    31.459379 
16686000   0.99254805   0.93066805    29.840172    56898.015   0.62989895     31.31766 
16688000   0.99315082    1.0639555    29.833392    56903.967   0.62983306    31.522658 
16690000   0.99279593   0.98091262    29.831455    56898.425   0.62989442     31.38872 
16692000    0.9923195     1.006255    29.836445    56894.321   0.62993985    31.433828 
16694000   0.99339053     1.037778    29.832073      56901.7   0.62985816     31.47971 
16696000   0.99644382    0.9463307    29.839841      56897.9   0.62990022    31.342191 
16698000   0.99870799    1.0459006    29.838039    56901.673   0.62985846    31.498572 
16700000   0.99217153    1.0402881    29.843911    56911.082   0.62975433    31.495806 
16702000   0.99539282    1.0377632    29.834361    56912.016   0.62974399    31.482273 
16704000   0.99100353    1.0284722    29.836348    56909.682   0.62976981     31.46944 
16706000   0.99336019   0.99891867    29.835908    56908.693   0.62978076    31.422045 
16708000    0.9956964    1.0047284    29.842312    56918.759   0.62966938    31.437956 
16710000     1.001554   0.99305875    29.846909    56928.946   0.62955671    31.424302 
16712000   0.99708584    1.0243828    29.838715    56936.236    0.6294761    31.466073 
16714000   0.99370105   0.99366884    29.830084    56936.295   0.62947545    31.408651 
16716000   0.99389643    1.0099144    29.833871    56930.874   0.62953539    31.438093 
16718000   0.99328697   0.98104164    29.835254    56928.507   0.62956157    31.393548 
16720000   0.99493561    1.0075515    29.842542    56925.139   0.62959881     31.44285 
16722000   0.99066307    1.0114078     29.83747    56928.629   0.62956022    31.444001 
16724000   0.99481847   0.96921505    29.842745    56930.258    0.6295422    31.382301 
16726000   0.99720954    1.1078487    29.833441    56926.439   0.62958444    31.593092 
16728000    1.0015215    1.0232805    29.842959    56928.179    0.6295652    31.468335 
16730000   0.99290648    1.0069878    29.837214    56936.822   0.62946962    31.436954 
16732000   0.99328791    1.0545894    29.836697    56920.695   0.62964797    31.511585 
16734000    0.9958969   0.98620961     29.83556     56913.53   0.62972723     31.40165 
16736000   0.99152632   0.93971976    29.836967    56915.207   0.62970869    31.329275 
16738000   0.99220878    1.0052173    29.835354    56912.483   0.62973882    31.431598 
16740000   0.99457108    1.0240053     29.82954    56917.077     0.629688    31.455751 
16742000   0.99253666   0.99591379    29.832437    56915.355   0.62970705    31.413988 
16744000   0.99049771   0.89402562    29.831704    56915.148   0.62970934    31.251447 
16746000   0.99401736    1.0176419    29.829604    56906.153   0.62980888    31.445398 
16748000    1.0002064    1.0011059    29.837959    56919.304   0.62966336    31.427865 
16750000   0.99544582    1.0310228    29.839828    56929.248   0.62955337    31.477533 
16752000   0.99997853   0.92663705    29.843599    56923.612   0.62961571    31.315349 
16754000   0.99331323   0.95801202    29.846501    56915.753   0.62970264    31.367873 
16756000   0.99727226    1.0091061    29.845344    56919.039   0.62966629    31.447948 
16758000    1.0013609   0.92398378    29.847939    56927.891   0.62956838    31.315585 
16760000   0.99918512   0.96123677    29.838754    56938.705   0.62944881    31.365862 
16762000    0.9955157    1.0545677    29.839001    56939.537   0.62943961    31.514408 
16764000   0.99487401      1.04154     29.83954    56934.537   0.62949489    31.494105 
16766000   0.99835286    1.0442974    29.840287    56935.348   0.62948592    31.499255 
16768000    1.0030544    1.0164872     29.84109    56937.789   0.62945894    31.455949 
16770000   0.99512748    1.0072648    29.838083    56940.594   0.62942792    31.438369 
16772000    0.9959999    1.0240506    29.841073    56931.926   0.62952376     31.46778 
16774000   0.99230602   0.97194952    29.839605    56922.347   0.62962969    31.383289 
16776000   0.99377969   0.97735737    29.840911    56912.796   0.62973536    31.392924 
16778000   0.99494857   0.97704774    29.844741    56901.116   0.62986462    31.395944 
16780000   0.99355523    1.0270826    29.833424    56892.057   0.62996492    31.463805 
16782000   0.99711244    1.0118983    29.836998    56882.902    0.6300663    31.443016 
16784000    0.9964914   0.99085751    29.830683    56885.661   0.63003575    31.403384 
16786000    0.9953608    1.0121135    29.842291    56881.358   0.63008341    31.448608 
16788000   0.99569634    1.0310684    29.831946    56887.839   0.63001163    31.468533 
16790000   0.99006433   0.97638962    29.834047    56881.455   0.63008233    31.383669 
16792000   0.99919258    1.0344001    29.842327    56889.696   0.62999106    31.484255 
16794000   0.99619807   0.97462473    29.847558    56896.113   0.62992001    31.394778 
16796000    1.0027323    1.0595585    29.844988    56904.296   0.62982943    31.527282 
16798000    1.0019565    1.0360899    29.844852    56911.444   0.62975032    31.490091 
16800000   0.99941286    1.0367993    29.849929    56922.034   0.62963315    31.496601 
16802000    1.0020721    1.0534945    29.854072    56926.537   0.62958335    31.527392 
16804000    1.0009664    1.0063873    29.860165    56924.039   0.62961098    31.458593 
16806000   0.99964775    1.0352117    29.846961    56928.842   0.62955786    31.491308 
16808000    1.0046027    1.0096204    29.855029    56937.242   0.62946498    31.458963 
16810000    1.0080678   0.99429301    29.861421    56949.459   0.62932995    31.441344 
16812000   0.99763846    1.0830673    29.853008    56965.389   0.62915396    31.574474 
16814000   0.99218471    1.0078098    29.841291     56963.86   0.62917084    31.443097 
16816000   0.99819534   0.99012219     29.83719    56965.134   0.62915677    31.410918 
16818000   0.99499261   0.95729129    29.837183    56968.285   0.62912197    31.358814 
16820000    1.0022194   0.96118398    29.838104    56963.813   0.62917136    31.365802 
16822000   0.99232314   0.99358875    29.835797    56963.919    0.6291702    31.415002 
16824000     1.003489   0.95666423    29.843204    56966.119   0.62914589     31.36378 
16826000   0.99625739   0.98776563    29.845517    56954.239   0.62927713      31.4152 
16828000   0.99937165   0.99775261    29.846575    56955.781   0.62926009    31.432171 
16830000    0.9946295    0.9673282    29.844246    56960.104   0.62921234     31.38161 
16832000   0.99921704   0.95796306    29.846148    56961.682    0.6291949     31.36867 
16834000    1.0025182    1.0237856    29.849746    56960.494   0.62920802    31.476848 
16836000    1.0045593   0.98051573    29.855651    56970.853   0.62909362    31.414267 
16838000    1.0049945   0.93781695    29.853339    56971.972   0.62908126    31.344111 
16840000    1.0006249    1.0091325    29.850161    56978.981   0.62900388    31.454496 
16842000    1.0026792   0.99612692    29.857778    56992.415   0.62885561     31.44181 
16844000    1.0047064    1.0214048    29.854425    56993.803   0.62884029    31.478693 
16846000    1.0037441    1.0327487     29.85919    57004.361   0.62872382    31.501801 
16848000   0.99788199   0.99151813    29.855195    57011.295   0.62864736     31.43242 
16850000   0.99907962   0.97064777    29.842529    57013.309   0.62862515     31.38661 
16852000   0.99967558   0.94532843     29.85167    57005.697   0.62870909    31.355273 
16854000   0.99829115   0.97177654    29.858988    57006.142   0.62870418     31.40467 
16856000    0.9983583     1.025303    29.857087    57006.964   0.62869511     31.48793 
16858000    1.0019216   0.98644135    29.853268    57014.273   0.62861453    31.422499 
16860000    1.0052413    1.0026079    29.863447      57007.6    0.6286881    31.458209 
16862000    1.0062943   0.97610855    29.851728    57006.559   0.62869959    31.404311 
16864000    1.0006956   0.94062426    29.853808    57005.624    0.6287099    31.349926 
16866000    1.0020033   0.94088666    29.854678    57008.232   0.62868113    31.351282 
16868000   0.99741948    1.0140433    29.851941    56998.495   0.62878853    31.464635 
16870000    1.0001443     0.986636    29.845699    56991.495   0.62886576    31.414613 
16872000    1.0005471    1.0309639    29.849282    56998.541   0.62878803    31.488886 
16874000   0.99831142    1.0085836    29.852417    56997.072   0.62880423    31.456388 
16876000    1.0015438    1.0739189    29.847735    57005.022   0.62871653    31.555848 
16878000     1.000258   0.96791348    29.850489     56998.09   0.62879299    31.389809 
16880000    1.0006364   0.95320026    29.854628    56997.673   0.62879759    31.370537 
16882000   0.99399966    1.0402875    29.849028    56994.066    0.6288374    31.503331 
16884000    1.0026917     1.014841    29.851268    56989.225   0.62889082    31.464968 
16886000    1.0030257    1.0640071    29.854509    56989.073   0.62889249    31.546384 
16888000    1.0046978   0.97771154    29.856402    56995.079   0.62882622    31.411222 
16890000    1.0022588    1.0188208    29.855931    56997.994   0.62879406    31.476208 
16892000   0.99723723   0.94837319    29.846917    56992.063    0.6288595    31.355002 
16894000    1.0003715   0.96781502    29.848788    56991.295   0.62886796    31.387767 
16896000    1.0060713   0.94047039    29.853981    57002.783   0.62874123     31.34978 
16898000    1.0010421   0.96196634    29.850965    56993.312   0.62884571    31.380699 
16900000    1.0001797   0.94755499    29.844016    56985.206   0.62893516    31.350618 
16902000   0.99833512   0.95462901    29.841117    56961.368   0.62919838    31.358331 
16904000   0.99883641   0.99190836    29.841289    56958.757   0.62922721     31.41768 
16906000   0.99331562    1.0161661    29.833966    56961.677   0.62919496    31.448992 
16908000   0.99392492   0.98245876    29.840327    56966.166   0.62914538    31.401904 
16910000   0.99768479   0.96696575    29.832411    56951.988   0.62930201     31.36898 
16912000   0.99064155   0.99563966    29.832713    56940.371   0.62943039    31.414523 
16914000   0.99839746    1.0162361    29.845389    56938.622   0.62944972    31.459872 
16916000   0.99698317    1.0085979    29.837541    56940.177   0.62943253    31.439933 
16918000   0.99041705   0.94178132    29.834702    56922.363   0.62962952    31.330472 
16920000   0.98579926    1.0276089    29.827768    56910.221   0.62976385    31.459505 
16922000   0.98941195     1.050514    29.833422    56901.721   0.62985792     31.50128 
16924000   0.98947806    1.0500746    29.836621    56888.456   0.63000479    31.503394 
16926000   0.99542065   0.97114479    29.834098    56885.081   0.63004217    31.375494 
16928000   0.99549219    1.0019319    29.835416    56890.746   0.62997944    31.425836 
16930000   0.99486683    1.0398234    29.834562    56902.252   0.62985205    31.485463 
16932000   0.99893884   0.95796951    29.841396    56891.719   0.62996865    31.362058 
16934000    1.0029378    1.0020577    29.845492    56901.313   0.62986244    31.436407 
16936000    1.0025605    1.0626688    29.849582    56906.715   0.62980265    31.536887 
16938000   0.99595726    1.0197694     29.84704    56921.866   0.62963501     31.46666 
16940000    1.0034282   0.99305706    29.848174      56929.1     0.629555    31.425569 
16942000    1.0024679   0.96666429    29.850212    56941.413   0.62941887    31.386016 
16944000   0.99612471    1.0258881    29.846055    56951.519   0.62930718    31.476241 
16946000    1.0015293   0.98053439    29.849147    56951.277   0.62930986    31.407258 
16948000   0.99522866    1.0297913     29.83733    56958.364   0.62923156    31.473916 
16950000   0.99346776   0.94307689    29.843367    56948.372   0.62934196    31.341879 
16952000   0.99633144   0.99358513    29.830819    56939.153   0.62944386    31.409332 
16954000   0.99527665    1.0105197     29.83451    56932.917    0.6295128    31.439751 
16956000    1.0007656   0.99478288    29.839907    56943.194   0.62939919    31.420434 
16958000   0.99166209    1.0169952    29.839589     56940.05   0.62943394    31.455319 
16960000   0.99740654    1.0064892    29.843422    56931.542     0.629528    31.442222 
16962000   0.99940389   0.96629964    29.838802    56946.913   0.62935808    31.374175 
16964000    0.9970382    1.0171236    29.836692    56950.043   0.62932349     31.45291 
16966000   0.99323898    1.0258019    29.835599     56955.55   0.62926264    31.465764 
16968000   0.99543439   0.97741622    29.836415    56951.941   0.62930252    31.389589 
16970000    1.0001527   0.98133456    29.834964    56950.161   0.62932218    31.394316 
16972000   0.99033852   0.97633073     29.83102    56939.529    0.6294397    31.382131 
16974000   0.99451515   0.98390609    29.833784    56926.141   0.62958774    31.396562 
16976000   0.99477999    1.0389966    29.834946    56927.854   0.62956879    31.485277 
16978000     1.000951    1.0409382    29.846702    56943.174   0.62939941    31.500562 
16980000   0.99983559    1.0483906    29.848746    56955.894   0.62925884    31.514818 
16982000    1.0048037    1.0114959    29.856801    56961.842   0.62919314    31.464409 
16984000     1.007093    1.0169511    29.850612    56967.325   0.62913258    31.467046 
16986000    1.0051955    1.0357424    29.850772    56980.607   0.62898593    31.497458 
16988000    1.0016794    1.0080409    29.856715    56983.765   0.62895107    31.459449 
16990000    0.9962651    1.0184027    29.846765    56980.017   0.62899244    31.465867 
16992000   0.99847678   0.97063489    29.853596    56982.657    0.6289633    31.396826 
16994000    1.0043765    1.0387012     29.84912    56988.146   0.62890272    31.500729 
16996000   0.99567178    1.0366567    29.843845    56983.945   0.62894908    31.492081 
16998000   0.99913502    1.0021008    29.840928    56986.624   0.62891951    31.434297 
17000000     1.000148   0.94507991     29.84762    56986.592   0.62891987    31.350323 
17002000    1.0012862   0.92847368    29.849924     56983.86   0.62895003    31.326152 
17004000    1.0017512   0.95414212    29.844766    56976.813   0.62902782    31.361618 
17006000   0.99874916   0.97587307    29.845545    56978.414   0.62901014    31.396987 
17008000   0.99910663    1.0218483    29.851704    56964.922   0.62915911    31.475853 
17010000    1.0027087   0.96678775    29.853853    56980.354   0.62898872    31.390904 
17012000    1.0055078    1.0142022    29.864555    56983.036   0.62895912    31.477064 
17014000    1.0046304    1.0483031     29.85633    56985.943   0.62892703    31.523142 
17016000    1.0010891   0.95151412    29.856443    56982.663   0.62896323    31.369273 
17018000    1.0066858   0.91796483    29.859797    56995.516   0.62882139    31.319615 
17020000    1.0048599     1.081341    29.862633    57000.451   0.62876696    31.582413 
17022000    1.0031419    1.0095442    29.860768    57008.693   0.62867605    31.466594 
17024000    1.0057143   0.96378702    29.859617    57002.905   0.62873988    31.392504 
17026000    1.0053866   0.99260463    29.865783     57001.34   0.62875715     31.44446 
17028000    1.0092422    1.0308525    29.855141    57007.992   0.62868378     31.49484 
17030000   0.99198224    1.0445577    29.855204    57014.198   0.62861535    31.516884 
17032000    1.0060232    0.9976084    29.857831     57005.92   0.62870663    31.444594 
17034000   0.99763531   0.89908786    29.856711    57003.496   0.62873337     31.28671 
17036000    1.0002813    1.0631331    29.852836    57008.211   0.62868137    31.543888 
17038000    1.0033518   0.95126133    29.859039    57016.556   0.62858935    31.372366 
17040000      1.00225    1.0063391     29.85165    57018.616   0.62856664    31.452657 
17042000    1.0004672    1.0214951    29.842924    57003.836   0.62872962    31.467621 
17044000    0.9968601    1.0756429     29.85084    57007.728   0.62868669    31.561776 
17046000   0.99716497   0.97421098    29.843991     56995.57    0.6288208    31.393257 
17048000    1.0041122     1.006921    29.854525     57003.22   0.62873641    31.456025 
17050000    1.0002759   0.99286318    29.849213    57000.717   0.62876402    31.428285 
17052000   0.99942269   0.97779831    29.852314    56995.624   0.62882021    31.407286 
17054000    1.0015521    1.0271782    29.848957    56988.591   0.62889781    31.482256 
17056000    1.0050788    1.0635379    29.852994    56996.187   0.62881399    31.544334 
17058000   0.99902353    1.0105723    29.849608    57003.963   0.62872822    31.456936 
17060000   0.99828812   0.95957153     29.84578    56987.309   0.62891196    31.371545 
17062000   0.99690863    1.0101177     29.85293    56981.265   0.62897866    31.458895 
17064000   0.99785492     0.989988     29.85396    56976.167   0.62903494    31.427781 
17066000    1.0002732     1.042069    29.851298    56984.881   0.62893876    31.508167 
17068000   0.99994719    1.0301285    29.848115    56978.877   0.62900502    31.485826 
17070000    1.0018831   0.96944788    29.847732    56979.861   0.62899417    31.388999 
17072000   0.99999838    1.0522249    29.850052    56963.513   0.62917468    31.522441 
17074000    1.0011926   0.96081985    29.847979    56962.738   0.62918324     31.37507 
17076000    1.0000195    0.9381678    29.841507    56964.137   0.62916779    31.332632 
17078000   0.99543885   0.97882058      29.8411    56958.578   0.62922919    31.396687 
17080000   0.99542569    1.0216604    29.841357    56948.229   0.62934354    31.464732 
17082000   0.99233221    0.9946284     29.83535    56939.327   0.62944193    31.415525 
17084000    1.0010715    1.0792217    29.844628    56940.525   0.62942869    31.559233 
17086000   0.99515413    1.0348872    29.847593    56931.477   0.62952872    31.491501 
17088000   0.99638672    1.0114441    29.852131    56935.375   0.62948562     31.45891 
17090000    0.9972625   0.97445195    29.839005    56927.453   0.62957322    31.386802 
17092000   0.99539517    1.0401724    29.838282    56929.734   0.62954799    31.490535 
17094000   0.99547797    1.0251734    29.835326    56921.257   0.62964175    31.463511 
17096000   0.99489289   0.98333483    29.835078    56922.384   0.62962929    31.396846 
17098000   0.99657554    1.0906262    29.840123    56925.822   0.62959126      31.5724 
17100000   0.99657562   0.96249729    29.832273    56931.579    0.6295276    31.361193 
17102000   0.99603468   0.97616958    29.832032    56922.891   0.62962368    31.382434 
17104000   0.98857697   0.92742818    29.829868    56919.658   0.62965944    31.302772 
17106000   0.99252348   0.97072422    29.835363    56914.788   0.62971332    31.376896 
17108000   0.99401535    1.0275467     29.83589    56915.237   0.62970835    31.467672 
17110000   0.99225314   0.94681931    29.833398    56913.575   0.62972674    31.336938 
17112000    0.9931711    1.0302518    29.836664    56908.519   0.62978269    31.472549 
17114000    0.9978738     1.012575    29.848032    56926.011   0.62958917    31.456343 
17116000   0.99672849   0.97049699    29.846384      56924.6   0.62960478    31.387822 
17118000   0.99717824    1.0118835    29.841799    56925.652   0.62959315    31.449001 
17120000   0.99981193    1.0380098    29.839585    56933.184   0.62950985    31.488503 
17122000   0.99474587   0.98345851    29.840944    56934.332   0.62949715    31.403236 
17124000   0.99151823    1.0655928    29.840559    56941.855   0.62941399    31.533551 
17126000   0.99041862    1.0555399    29.836567    56946.362   0.62936418    31.513719 
17128000   0.99689868    1.0731857    29.835327    56947.127   0.62935572    31.540541 
17130000   0.99463324    0.9378552    29.831499    56951.722   0.62930494    31.321802 
17132000   0.99518888    0.9901097    29.839513    56955.649   0.62926155     31.41296 
17134000   0.99521988    1.0018996    29.837244    56948.212   0.62934373    31.429219 
17136000   0.98703826   0.95959254    29.828196    56934.138    0.6294993     31.35257 
17138000   0.98744607   0.95469359    29.828626    56921.726   0.62963656    31.344887 
17140000   0.99031349   0.96996509    29.829523    56905.557   0.62981547    31.369601 
17142000   0.99140673    1.0510809    29.830418    56897.303   0.62990683    31.499047 
17144000   0.99505451   0.98167031    29.830767    56892.291   0.62996233    31.389067 
17146000   0.99895632   0.95802691    29.838281    56900.766   0.62986849    31.359276 
17148000   0.98910293   0.95920045    29.826827    56897.619   0.62990333    31.349601 
17150000   0.99397365   0.95593622     29.82655    56892.538   0.62995959    31.344006 
17152000   0.99626236   0.93275107    29.831594    56890.269   0.62998471    31.312187 
17154000   0.99467569    1.0033026    29.833012    56904.499   0.62982717    31.425993 
17156000   0.99858619   0.98453104    29.845268    56916.709   0.62969207     31.40878 
17158000   0.99651762    1.0632126    29.852159    56922.387   0.62962926    31.540792 
17160000   0.99660571    1.0218094    29.845798    56928.648      0.62956    31.468851 
17162000    0.9946477     1.032094    29.843702    56937.676   0.62946019    31.483352 
17164000    1.0003154    1.0297503    29.848781    56952.619   0.62929503    31.485136 
17166000    1.0036868    1.0296053    29.857368    56954.863   0.62927023    31.493557 
17168000    1.0000762   0.98011072    29.844966     56952.76   0.62929347    31.402444 
17170000    0.9982125    1.0821254    29.842911    56956.213   0.62925532    31.562604 
17172000    1.0021496     1.005313    29.842102     56958.88   0.62922586      31.4398 
17174000   0.99872815    1.0307273    29.841488    56955.841   0.62925942    31.479489 
17176000    0.9908011   0.90895684    29.837442    56947.673   0.62934968    31.281721 
17178000    1.0006421   0.99824234    29.839658    56942.867    0.6294028    31.425673 
17180000    1.0008381    1.0349155    29.840297    56924.265   0.62960848    31.484042 
17182000   0.99412904    1.0457564    29.841434    56927.425   0.62957353    31.502489 
17184000   0.99550562   0.94654095    29.845604    56928.391   0.62956285    31.349093 
17186000    1.0008279    1.0347807    29.855562        56929   0.62955612    31.499229 
17188000   0.99483356   0.96470214    29.847165    56935.639   0.62948271    31.379697 
17190000    1.0028199    1.0274982    29.856154    56937.345   0.62946385    31.488493 
17192000   0.99832529   0.99344918    29.851748     56946.78   0.62935956    31.430256 
17194000    1.0017936    1.0537889    29.856984    56952.151    0.6293002    31.531525 
17196000    1.0067876    1.0264201    29.861303    56957.821   0.62923755    31.492515 
17198000   0.99618431   0.96848451    29.848848    56954.992   0.62926881    31.387912 
17200000   0.99973442    0.9430256    29.841163    56960.185   0.62921144    31.339905 
17202000   0.99414139    0.9886763    29.842007    56950.606   0.62931727    31.413037 
17204000    1.0008235   0.95025885    29.852489    56944.102   0.62938915      31.3623 
17206000   0.99808661   0.98124461    29.845262     56938.85   0.62944721    31.404161 
17208000     0.996651    1.0449124    29.849304    56939.006   0.62944548    31.509356 
17210000    0.9957829   0.95168385    29.843335    56951.055   0.62931231    31.355595 
17212000    1.0010897    1.0649097    29.844649    56949.007   0.62933494    31.536768 
17214000   0.99895381    1.0301339    29.840516    56940.429   0.62942975    31.477131 
17216000   0.99752526   0.95460212    29.851479    56932.641   0.62951585    31.367886 
17218000    1.0002043   0.96822188    29.852392    56930.671   0.62953763    31.390381 
17220000     1.006669    1.0727439    29.857451    56946.814   0.62935918    31.561953 
17222000    1.0026187   0.97673908    29.858156    56957.014   0.62924647    31.410392 
17224000    1.0021339   0.93858721    29.857893    56969.371   0.62910998    31.349822 
17226000    1.0007066   0.95737847    29.846431    56970.434   0.62909825    31.368257 
17228000   0.99911633    1.0109347     29.84155    56964.756   0.62916095    31.448349 
17230000   0.99727159   0.97029139    29.841977    56964.455   0.62916428    31.384167 
17232000   0.99148202   0.94792926    29.839271    56960.746   0.62920525    31.345821 
17234000   0.99329046   0.95489506    29.836107    56946.035   0.62936779    31.353336 
17236000    0.9987201    0.9584204    29.839987    56944.959   0.62937968    31.362788 
17238000   0.99632298   0.98956705    29.838301    56937.615   0.62946086    31.410388 
17240000   0.99552897    1.1189673    29.841983    56945.332   0.62937556    31.619883 
17242000    1.0037368   0.97278055    29.846519    56950.363   0.62931995    31.392284 
17244000   0.99483581    1.0002202    29.851616    56962.423   0.62918672    31.441319 
17246000   0.99455976    1.0670568    29.844297    56968.899   0.62911519     31.54042 
17248000    0.9962777    1.0264446     29.84808    56972.488   0.62907556    31.479752 
17250000   0.99366014   0.97257641    29.838024    56970.293    0.6290998    31.384005 
17252000   0.99839256    1.0077782    29.848381    56980.622   0.62898576    31.450608 
17254000    1.0024042    1.0119787    29.848572    56985.156   0.62893571    31.457605 
17256000    1.0000533   0.97892152    29.848671    56997.178   0.62880306    31.405473 
17258000    1.0004519   0.93171702      29.8558     56999.12   0.62878164    31.337582 
17260000    1.0021076   0.93980519    29.850739    56995.558   0.62882093     31.34529 
17262000   0.99571639    1.0487348    29.837415    56990.137   0.62888074    31.505036 
17264000   0.99417026     1.022961    29.841648     56977.68   0.62901824     31.46793 
17266000   0.99244503    1.0838081    29.839429    56967.177   0.62913421    31.562127 
17268000   0.99298213    1.0344679    29.825662    56957.108   0.62924543    31.469644 
17270000   0.99852841    1.1040608    29.837103    56952.072   0.62930108    31.591526 
17272000   0.99163167    1.0115518    29.832411    56952.181   0.62929987    31.439836 
17274000   0.99754194    1.0437627    29.839344    56946.763   0.62935974    31.497795 
17276000   0.99759417   0.96242618    29.845918    56939.217   0.62944315     31.37493 
17278000    1.0007261    1.0619838    29.847666    56950.064   0.62932326    31.535167 
17280000    1.0027455    1.0789096    29.849567    56954.868   0.62927018    31.564108 
17282000   0.99917763   0.99944248    29.843403    56950.697   0.62931627    31.431543 
17284000   0.99752884   0.93760563    29.847264    56940.146   0.62943288    31.336868 
17286000    1.0030954    1.0381921    29.850928     56950.97   0.62931325    31.500651 
17288000    1.0069079    1.0111976    29.863351     56957.33   0.62924298    31.470358 
17290000    1.0030712   0.93006045     29.85463     56962.57   0.62918509    31.332828 
17292000   0.99883771    0.9364374    29.855369    56969.311   0.62911065    31.343879 
17294000   0.99649913    1.0117472    29.843038      56956.4   0.62925325    31.450892 
17296000   0.99769938   0.98526086    29.838453    56949.017   0.62933483    31.404012 
17298000   0.99574194   0.99894775    29.844219    56947.059   0.62935646    31.431472 
17300000   0.99446443    1.0579856    29.841156    56941.092   0.62942242    31.522039 
17302000   0.99834336   0.99896903    29.849318    56939.665    0.6294382    31.436398 
17304000    1.0019527    1.0303873    29.844409    56952.147   0.62930024    31.481763 
17306000   0.99436311    0.9431054    29.840086    56952.346   0.62929805    31.338748 
17308000   0.99837748   0.94075426    29.839483    56947.701   0.62934937    31.334287 
17310000   0.99835824   0.98561536    29.841635    56947.347   0.62935329    31.407712 
17312000   0.99771313    0.9875682    29.843837    56946.609   0.62936144    31.412996 
17314000   0.99732407   0.97696279    29.843985    56941.312   0.62941999    31.396149 
17316000   0.99778716    1.0408536    29.845574    56942.296   0.62940911    31.499274 
17318000   0.99566876   0.99261556    29.841823    56954.997   0.62926875    31.419234 
17320000   0.99930872   0.99234158    29.845872    56959.613   0.62921776    31.422976 
17322000   0.99562578   0.98013185    29.836269    56950.669   0.62931658    31.393723 
17324000   0.99759316     1.016709     29.85041    56943.282   0.62939822    31.465776 
17326000    1.0018043   0.99955763    29.844889    56953.466   0.62928567     31.43329 
17328000   0.99886186    1.0061678    29.843753    56953.007   0.62929074    31.442645 
17330000    1.0035816   0.97083682    29.852112    56961.024   0.62920218    31.395076 
17332000    1.0042349    1.0392092    29.856501    56950.796   0.62931517    31.507835 
17334000     1.005859   0.94851262    29.854856    56961.175    0.6292005    31.362344 
17336000    1.0020275    1.1059034    29.852368    56978.875   0.62900504    31.610547 
17338000    1.0001632    1.0098376    29.844389    56981.536   0.62897567    31.449917 
17340000   0.99969906   0.96327846    29.846311    56978.636   0.62900769    31.377737 
17342000    1.0013903   0.94261599    29.845796    56973.067   0.62906917    31.344226 
17344000    1.0059318    1.1025872     29.85245    56967.525   0.62913037    31.605007 
17346000   0.99874807    1.0041544    29.842726    56967.851   0.62912677    31.438835 
17348000    1.0002707   0.99192155     29.83963    56969.764   0.62910564    31.416347 
17350000   0.99628917   0.97152272    29.848016    56962.055   0.62919078    31.392099 
17352000    0.9968592   0.96261145    29.845616    56949.021   0.62933479    31.375186 
17354000    1.0004684    1.0072489    29.842021    56944.631    0.6293833    31.442395 
17356000   0.99821129    1.0148833     29.83815    56948.945   0.62933562    31.450776 
17358000   0.99410263    1.0657611      29.8405    56938.799   0.62944776    31.533668 
17360000   0.99927843   0.99469945    29.846102    56950.024    0.6293237    31.426687 
17362000   0.99956163   0.97984505    29.851087    56960.804   0.62920461    31.408363 
17364000   0.99926759    1.0222953    29.847948    56955.256   0.62926589    31.472532 
17366000    1.0000465   0.97595565    29.841348    56952.436   0.62929705    31.392215 
17368000    1.0008439    0.9285586    29.840945    56943.121   0.62939999    31.316253 
17370000   0.99530377    1.0126578    29.831261    56934.183   0.62949881    31.439934 
17372000    0.9917345    1.0204031    29.826227    56927.971   0.62956749    31.447027 
17374000    0.9958486    1.0136013    29.836867     56922.63   0.62962657    31.446712 
17376000   0.98642636    0.9926925    29.825206    56921.861   0.62963507    31.401822 
17378000   0.99815099    1.0536865    29.836308    56914.883   0.62971227    31.509591 
17380000    0.9898211    0.9866011    29.829313    56906.326   0.62980695    31.395827 
17382000   0.99184185    1.0112885    29.829814    56898.548   0.62989305    31.435306 
17384000   0.99465747     1.045425    29.834226    56876.256   0.63013993    31.493262 
17386000   0.99320514    1.0085355    29.838731     56866.38   0.63024937    31.438947 
17388000   0.99865437   0.96050635    29.842219     56867.02   0.63024227    31.366246 
17390000    1.0011647   0.98314745    29.844615    56873.359   0.63017203    31.404741 
17392000   0.99432452   0.97868361    29.846414    56900.215   0.62987459     31.40019 
17394000     1.004478   0.97870508    29.849402    56907.175   0.62979756    31.403402 
17396000    1.0039946    1.0343811    29.852086    56916.534     0.629694    31.494759 
17398000     1.004507     1.010727    29.855195    56925.159    0.6295986    31.460546 
17400000    0.9998119   0.99531793    29.858025    56930.937    0.6295347    31.439063 
17402000   0.99897713   0.96935814    29.852228    56935.132   0.62948831    31.392143 
17404000    1.0020891   0.93700412    29.851527    56932.771   0.62951442    31.339983 
17406000     1.000762    1.0448246    29.851455    56939.056   0.62944493     31.51137 
17408000    1.0025526   0.95637325    29.843543    56938.155   0.62945488     31.36291 
17410000   0.99508163    1.0335359    29.844029    56933.593   0.62950533    31.485852 
17412000   0.99917355   0.93613225    29.843498    56931.932   0.62952369    31.330546 
17414000   0.99334154   0.99626909    29.839978    56933.458   0.62950682    31.422597 
17416000   0.99670018   0.99680835    29.838638    56933.458   0.62950682    31.422113 
17418000   0.99970011   0.98245085    29.842907    56927.421   0.62957358    31.403409 
17420000   0.99714674    1.0056171    29.844203    56934.414   0.62949624    31.441698 
17422000    0.9971487   0.96106421     29.84078    56927.332   0.62957456     31.36731 
17424000   0.99412675   0.97428993    29.833665    56920.807   0.62964672    31.381024 
17426000    1.0017407    1.0398931    29.842154    56918.686   0.62967019    31.493642 
17428000   0.99132781   0.96897473    29.834737    56917.077   0.62968799    31.373554 
17430000   0.99731376   0.99062554    29.847192    56927.613   0.62957145    31.420684 
17432000   0.99996454    1.0197171    29.844398    56931.317   0.62953049    31.464204 
17434000    1.0008148   0.99273091    29.845818    56942.482   0.62940705    31.423066 
17436000   0.99902981   0.97353212    29.844063     56951.45   0.62930795    31.391052 
17438000    0.9946769    1.0257071    29.841673    56948.275   0.62934303    31.471479 
17440000   0.99845981    0.9669929    29.836311     56941.89   0.62941361     31.37265 
17442000   0.99326263    1.0322381    29.837095    56931.817   0.62952497    31.476804 
17444000   0.99830556   0.98366651    29.845666    56935.657    0.6294825    31.408325 
17446000     1.003198   0.99103452    29.852232    56939.689   0.62943793    31.426708 
17448000   0.99664675   0.98897993    29.848524    56948.476   0.62934081    31.419978 
17450000    1.0024891   0.96184896    29.848953    56944.202   0.62938805    31.377182 
17452000    1.0021202    1.0723932     29.85348    56950.473   0.62931875    31.557534 
17454000    1.0010555    1.0494998    29.843989     56954.97   0.62926905    31.511797 
17456000   0.99898174    1.0089918    29.843553    56953.217   0.62928842    31.446938 
17458000     1.001603   0.90030072    29.840798    56942.666   0.62940502    31.271197 
17460000    1.0004749    1.0732673    29.838013    56938.352   0.62945271    31.543093 
17462000   0.99426629     1.000892    29.841688    56936.409    0.6294742    31.431733 
17464000   0.99562272   0.98837876    29.835407    56944.645   0.62938315      31.4058 
17466000   0.99447257    1.0629502    29.840846    56935.074   0.62948895    31.529438 
17468000   0.99861245     1.003609    29.842892    56936.381    0.6294745    31.437252 
17470000    1.0014107    0.9718823    29.846249    56944.899   0.62938034    31.390438 
17472000   0.99225059   0.99511826     29.83799    56953.319    0.6292873    31.419332 
17474000   0.99813652    1.0199007    29.842813    56952.054   0.62930127    31.463501 
17476000   0.99609454    1.0206472    29.841393    56945.718   0.62937129    31.463086 
17478000    1.0003223    1.0159475     29.84392    56947.414   0.62935255    31.458194 
17480000   0.99872065   0.96838052    29.841331    56941.356   0.62941951    31.379861 
17482000    1.0010838    0.9412181    29.848526    56939.811   0.62943658     31.34386 
17484000   0.99714727    1.0506325    29.840769    56935.316   0.62948627    31.509801 
17486000   0.99535204   0.96105627    29.843044    56941.406   0.62941895    31.369939 
17488000   0.99427041    1.0373053    29.838125    56935.792   0.62948101    31.485999 
17490000   0.99828997     1.026602    29.843657    56937.033   0.62946729    31.474564 
17492000   0.99391071   0.96869389    29.836944    56939.255   0.62944273    31.375914 
17494000    0.9997114   0.96973343    29.843163     56925.24    0.6295977    31.383406 
17496000    1.0034036    1.0171329    29.844607    56927.238   0.62957559    31.460192 
17498000   0.99926674    0.9748358     29.84895    56944.585   0.62938381    31.397823 
17500000   0.99988156    1.0202702    29.845823    56955.694   0.62926106    31.467202 
17502000   0.99857172    1.0148289    29.840652    56955.495   0.62926325    31.453378 
17504000   0.99887627    1.0639732    29.848614    56952.758   0.62929349    31.539356 
17506000   0.99713092    1.0181278      29.8448    56955.249   0.62926597    31.462761 
17508000    1.0015826   0.93529224    29.855612    56959.391   0.62922022    31.342043 
17510000   0.99830229    1.0379861    29.847674    56964.893   0.62915943    31.497473 
17512000    1.0007102    1.0007742    29.854571    56975.893   0.62903797    31.445531 
17514000    1.0065373   0.97467509    29.856101    56980.957   0.62898206    31.405708 
17516000    1.0069106    1.0023083    29.857663    56994.606   0.62883144    31.451585 
17518000    1.0059859   0.97606781    29.859485    57003.165   0.62873702    31.411911 
17520000    1.0075007   0.99794726    29.861023    57013.893   0.62861871    31.448547 
17522000    1.0017216   0.97840529    29.851234    57016.446   0.62859057    31.407741 
17524000    1.0051537   0.98892689    29.855399     57012.07   0.62863881    31.428523 
17526000    1.0037854    1.0211269    29.857507    57008.882   0.62867397    31.481762 
17528000    1.0016478   0.96770071     29.85408    57004.181   0.62872582    31.393226 
17530000    1.0014765    1.0425619    29.852441    57002.888   0.62874008    31.510617 
17532000    1.0056343   0.95142526    29.857423    57010.615   0.62865486    31.370853 
17534000   0.99722749    1.0115564    29.841943    57000.915   0.62876184     31.45075 
17536000   0.99755593    1.0342551    29.848755     56983.89   0.62894969    31.493171 
17538000    1.0008206   0.96519789      29.8542    56982.678   0.62896307    31.388786 
17540000   0.99209962    1.0029396    29.854491    56976.436   0.62903198    31.448908 
17542000    1.0029951   0.92213456    29.843146    56968.845   0.62911579    31.308908 
17544000   0.99520266   0.97906894    29.846175    56961.933   0.62919213    31.402248 
17546000   0.99492721    1.0427797    29.842268    56959.591     0.629218    31.499531 
17548000   0.99402302    1.0024787    29.845157    56961.967   0.62919175    31.438438 
17550000   0.99427237   0.97983508    29.842644    56963.023    0.6291801    31.399965 
17552000   0.99563921   0.94419271    29.844486    56952.164   0.62930005    31.344871 
17554000    1.0013906    1.0792627    29.842284    56943.433   0.62939655    31.557042 
17556000   0.99971639   0.94331777    29.845647    56957.822   0.62923755    31.344791 
17558000    1.0022081   0.98517068    29.851478    56969.596   0.62910749    31.417459 
17560000    1.0072012   0.96271772    29.854808    56975.834   0.62903862    31.385267 
17562000   0.99997485    1.0445794    29.847537    56983.562   0.62895331    31.508359 
17564000    1.0011774    1.0055745    29.851064    56981.059   0.62898094      31.4498 
17566000    1.0017371   0.95691491    29.848285    56981.313   0.62897813    31.369665 
17568000    1.0006309     1.014289    29.847437    56981.688     0.628974    31.460046 
17570000   0.99941526   0.96348663    29.845587    56979.333        0.629    31.377362 
17572000   0.99633195    1.0093933    29.839037    56981.764   0.62897316    31.443865 
17574000   0.99652613     0.995347    29.846962    56975.646    0.6290407    31.429287 
17576000    1.0014862    1.0037012    29.850398    56979.651   0.62899648    31.446116 
17578000    1.0036926   0.94390232    29.853299    56982.027   0.62897025     31.35401 
17580000    1.0000758   0.96136794     29.84696    56989.247   0.62889057    31.375633 
17582000    1.0002284   0.97201761    29.850592     56994.17   0.62883624    31.396332 
17584000    1.0016136   0.98517398    29.853661     57000.97   0.62876123     31.42051 
17586000   0.99940099   0.99015038    29.858908    57003.336   0.62873513    31.433737 
17588000    1.0047604   0.95695505    29.862875     57005.48   0.62871148    31.384964 
17590000    1.0057308   0.96464272    29.868197    57009.077   0.62867182    31.402611 
17592000    1.0052616    1.0496434    29.865153    57013.481   0.62862325    31.534903 
17594000    1.0139461    1.0303796    29.868745    57023.532   0.62851245    31.508139 
17596000    1.0042459   0.95610745    29.866918    57021.305     0.628537    31.388081 
17598000    1.0120327    1.0473167    29.866251    57028.316   0.62845972    31.532733 
17600000    1.0074242   0.98927775    29.868484     57052.26   0.62819598    31.443275 
17602000    1.0043864   0.96818611    29.863944    57054.495   0.62817137    31.405221 
17604000    1.0027661    1.0219934    29.858669     57056.07   0.62815403    31.485648 
17606000   0.99827303     1.068954    29.851128    57043.085   0.62829701     31.55248 
17608000   0.99964913    1.0088453    29.856683    57036.901   0.62836513    31.462191 
17610000   0.99963401   0.99071311    29.851866    57028.248   0.62846048    31.428279 
17612000   0.99673153    1.0318825    29.852676    57023.606   0.62851164    31.494463 
17614000    1.0022736   0.92341334    29.851669    57014.854   0.62860812     31.32065 
17616000    1.0025009    1.0005989    29.857297    56997.465    0.6287999     31.44858 
17618000    1.0009033   0.96923424     29.85349     56992.95   0.62884971    31.394771 
17620000   0.99804306    1.0047808    29.845025    56991.248   0.62886849    31.442784 
17622000   0.99819724   0.99933718    29.845476    56976.779   0.62902819    31.434176 
17624000    0.9999982   0.92901996    29.849259    56973.033   0.62906954    31.326075 
17626000   0.99280897   0.95080393    29.844152    56966.485   0.62914186    31.355423 
17628000    1.0022733   0.95246712    29.859188    56961.795   0.62919365    31.372978 
17630000    1.0027097    1.0819272    29.854542    56958.529   0.62922974    31.573989 
17632000    1.0010323   0.98892254    29.855711    56967.336   0.62913246    31.427594 
17634000   0.99946688    1.0094032    29.852033    56967.778   0.62912758    31.456482 
17636000    1.0032895   0.92436996    29.855096    56971.125   0.62909062    31.324471 
17638000    1.0010541    1.0323627    29.854032    56984.447   0.62894355    31.495456 
17640000    1.0020325   0.95032686    29.851612    56978.909   0.62900468    31.362454 
17642000   0.99892192   0.99957438    29.855899    56982.494    0.6289651    31.445136 
17644000    1.0003475   0.99220031    29.850432      56983.2   0.62895731    31.427965 
17646000   0.99378411    1.0317577     29.84699     56980.42     0.628988    31.487336 
17648000   0.99598767   0.95396559    29.841075    56962.662   0.62918408     31.35727 
17650000   0.99320329   0.94031441    29.839259    56957.218   0.62924422    31.333615 
17652000   0.99387424   0.99865975    29.841376    56950.436   0.62931916    31.428266 
17654000   0.99585123    1.0419952    29.843512    56943.209   0.62939902    31.499052 
17656000    0.9976497   0.96227852    29.848546    56936.821   0.62946964    31.377259 
17658000   0.99955411   0.94069044    29.851827    56931.711   0.62952613    31.346111 
17660000    1.0019494   0.94381967    29.858224    56941.409   0.62941891    31.357734 
17662000    1.0024211    1.0169635    29.853305     56941.89    0.6294136    31.469037 
17664000     1.003117    1.0460816    29.863682    56955.218   0.62926631    31.526065 
17666000    1.0134421    1.0357236    29.865974    56967.438   0.62913133     31.51225 
17668000    1.0017184   0.94766661    29.865326    56973.311   0.62906648    31.371791 
17670000    1.0054921   0.97048128    29.857098    56977.266   0.62902281    31.399937 
17672000   0.99957921    1.0629504    29.853851    56984.613   0.62894172    31.543913 
17674000   0.99686945   0.92184059    29.851258    56988.152   0.62890266     31.31705 
17676000    1.0030378    1.0175921    29.848905    56983.486   0.62895415    31.466817 
17678000   0.99830498    1.0598442     29.84335    56974.899   0.62904894    31.528186 
17680000   0.99758811   0.99798595    29.849589    56976.363   0.62903278    31.436129 
17682000   0.99825099    1.0126071    29.845412    56974.445   0.62905396    31.455142 
17684000    1.0013419    1.0030054    29.847541    56962.033   0.62919103     31.44166 
17686000   0.99733566   0.97277398    29.850578     56962.68   0.62918388    31.396666 
17688000   0.99689872   0.95630123    29.848867    56969.921   0.62910391    31.368968 
17690000   0.99585513    1.0717665    29.847621    56980.013   0.62899248    31.551563 
17692000   0.99793358   0.95683784    29.851114     56973.69   0.62906229    31.372168 
17694000     0.997181      1.01556    29.846269    56973.552   0.62906382    31.460668 
17696000    0.9946784    1.0095464    29.842658    56964.093   0.62916828    31.447231 
17698000   0.99412815   0.96431811    29.843941    56963.466   0.62917519    31.376611 
17700000    0.9962729    1.0321713    29.844986    56975.128   0.62904641    31.485837 
17702000   0.99458508    1.0104188    29.842268     56976.06   0.62903613    31.448565 
17704000   0.99884828    1.0342575    29.845168    56969.957   0.62910351    31.489186 
17706000    1.0020133   0.97709153    29.852731    56971.109   0.62909079    31.405912 
17708000    1.0020232   0.93085481     29.85344    56979.368   0.62899961    31.333338 
17710000    1.0008681    1.0071166    29.847067    56981.302   0.62897826    31.448262 
17712000    1.0062946    1.0260318    29.856752    56984.463   0.62894337     31.48811 
17714000   0.99513015    1.0242897    29.850016    56987.422   0.62891071    31.478689 
17716000   0.99772074   0.98121268    29.855348    56989.838   0.62888405    31.415592 
17718000    1.0045161   0.99747688    29.846098    56986.093   0.62892538    31.432099 
17720000     1.001221   0.97880626    29.848095    56991.095   0.62887017    31.404547 
17722000    1.0040892    1.0356592    29.850728    56986.637   0.62891937    31.497456 
17724000     1.004427    1.0731596    29.857816    56993.844   0.62883985    31.564387 
17726000    1.0011625    1.0253342    29.856724    56995.192   0.62882497     31.48728 
17728000    1.0006439    1.0304907    29.853512    56993.184   0.62884713     31.49221 
17730000    1.0069638    1.0065064    29.858665    56999.166   0.62878114    31.459391 
17732000    1.0031748   0.99298321    29.854921    56991.236   0.62886862     31.43392 
17734000    1.0003563   0.94467973    29.847138    56988.849   0.62889496    31.349264 
17736000    0.9995414    1.0184437    29.850481    56986.154    0.6289247    31.469823 
17738000   0.99845907   0.97640645    29.856054     56989.65   0.62888612     31.40865 
17740000    1.0033347    1.0116098    29.860204    56986.158   0.62892465    31.468679 
17742000    1.0040999   0.97931986    29.852939    56987.591   0.62890884    31.410112 
17744000    1.0049943     1.048029    29.859443    56988.122   0.62890298    31.525883 
17746000     1.000697    1.0242554    29.855711    56990.655   0.62887504    31.484421 
17748000    1.0016638   0.98236222    29.853161     56979.84    0.6289944    31.414959 
17750000    1.0020413    1.0573238     29.85215    56987.374   0.62891124    31.533347 
17752000   0.99819532   0.99900872    29.852227    56984.565   0.62894224    31.440622 
17754000   0.99780865    1.0308644    29.848806    56988.338    0.6289006    31.487959 
17756000   0.99709902   0.97470665    29.851048    56980.686   0.62898506    31.400698 
17758000   0.99936812     1.036169    29.854335    56962.722   0.62918342    31.501182 
17760000   0.99965848   0.98882781    29.851106    56964.903   0.62915932    31.422771 
17762000    1.0001369    1.0626456    29.850008    56966.815   0.62913821    31.539057 
17764000    1.0043151   0.99010423    29.855793    56972.147   0.62907932    31.429688 
17766000   0.99845008   0.97864659     29.85253    56961.323   0.62919887    31.407915 
17768000    1.0042604   0.97563974    29.849352    56967.214    0.6291338    31.400119 
17770000    1.0001292   0.99931589    29.845952    56964.024   0.62916904    31.434263 
17772000    0.9987302   0.95644283    29.845764     56962.51   0.62918576    31.365892 
17774000    1.0032724    1.0432529    29.844222    56968.041   0.62912467    31.502483 
17776000    1.0010676   0.97144215    29.843805    56958.224   0.62923311    31.387656 
17778000    1.0042947   0.94978982    29.841716    56954.561   0.62927357    31.351059 
17780000    0.9989772    1.0112647    29.844394     56957.99   0.62923568    31.451526 
17782000     1.006201    1.0005646    29.842461    56958.122   0.62923423    31.432592 
17784000    1.0042559    1.0227213     29.85129     56962.32   0.62918785    31.476753 
17786000   0.99548966   0.98760052    29.848085    56974.262   0.62905597    31.418058 
17788000     1.001386    1.0111459    29.850914    56982.665   0.62896322    31.458553 
17790000    1.0009778    0.9593276    29.847341     56968.79    0.6291164    31.372222 
17792000   0.99602763   0.98491113    29.842065    56973.926   0.62905969    31.407753 
17794000   0.99665803   0.99083503    29.841564    56982.557    0.6289644    31.416907 
17796000    0.9969235   0.96781925    29.840401    56977.598   0.62901914    31.379018 
17798000   0.99321785     1.064692    29.842198    56989.675   0.62888584     31.53518 
17800000   0.99448097   0.93230451    29.842055    56983.502   0.62895398    31.324365 
17802000    1.0010343   0.98613828    29.840126    56979.199   0.62900147    31.407909 
17804000   0.99397827    1.0124313    29.843083    56981.653   0.62897439    31.452737 
17806000     1.000094   0.97210912    29.851134     56988.07   0.62890356    31.396855 
17808000   0.99725563   0.93568505    29.847322    56979.879   0.62899396    31.334912 
17810000   0.99498905    1.0394247    29.848441    56979.641    0.6289966    31.500953 
17812000   0.99865454    1.0120876    29.838578    56974.298   0.62905558    31.447478 
17814000   0.99548061    1.0122514    29.843331    56970.218   0.62910063    31.452376 
17816000   0.99673853   0.90575572    29.841699    56971.384   0.62908776    31.281492 
17818000    1.0009383    1.0175298    29.846712    56967.148   0.62913453    31.464061 
17820000   0.99865836     1.014112    29.840977    56954.413    0.6292752    31.452532 
17822000   0.99797356   0.98334477    29.840438    56945.485   0.62937387    31.402855 
17824000   0.99152058   0.93920374    29.835292    56936.283   0.62947558    31.327333 
17826000   0.99184265   0.95245467    29.831451    56928.832   0.62955797    31.344345 
17828000   0.98902748   0.94628854    29.828207    56921.564   0.62963836    31.331115 
17830000   0.99360062   0.96516232    29.837701    56903.918   0.62983361    31.370109 
17832000   0.99202954    1.0372129    29.827912    56896.295   0.62991799    31.474496 
17834000    1.0005952     1.050433    29.839907    56898.009   0.62989902    31.507529 
17836000   0.99159048   0.99447055    29.835055    56889.528   0.62999292    31.413597 
17838000   0.99201316   0.94907074    29.835221    56890.396   0.62998331    31.341722 
17840000   0.99436549   0.99972198    29.835194     56895.12   0.62993101    31.422228 
17842000   0.99136462    1.0707381    29.835546    56891.869     0.629967    31.535219 
17844000   0.99574587   0.97047171    29.830845    56891.679   0.62996911    31.371352 
17846000   0.99540052   0.99200921    29.835374    56898.557   0.62989295     31.41026 
17848000   0.99985658   0.99462192    29.844212    56900.747   0.62986871    31.423306 
17850000   0.99456202    1.0385618    29.841848    56894.964   0.62993273    31.490535 
17852000   0.99602835   0.94658038    29.835507    56897.462   0.62990507    31.338242 
17854000   0.99745193   0.99757713    29.836295    56899.417   0.62988343    31.420044 
17856000   0.99729639    1.0215991    29.848007    56917.103   0.62968771    31.470397 
17858000   0.99889994    1.0593727    29.848892    56922.792   0.62962477    31.531438 
17860000   0.99837374    1.0130303    29.843669    56927.474   0.62957299    31.452745 
17862000   0.99712807   0.93762089    29.838091    56953.664   0.62928348    31.328073 
17864000   0.99495104     1.048139    29.844026    56949.613   0.62932824    31.509514 
17866000     1.002911   0.97710929    29.850773    56955.702   0.62926096    31.403562 
17868000    1.0035366   0.95892507    29.852989    56955.142   0.62926716    31.376865 
17870000    1.0021043   0.99916525    29.857631    56953.879   0.62928111    31.445419 
17872000    1.0031793    1.0285099    29.853567    56957.639   0.62923956    31.488096 
17874000   0.99949362    1.0342464     29.84786    56950.613    0.6293172    31.491302 
17876000   0.99652726    1.0270093     29.84094    56947.454    0.6293521    31.472792 
17878000    0.9957888    0.9367692    29.839705    56945.091   0.62937822    31.328109 
17880000   0.99824635    1.0125041    29.845327    56944.877   0.62938059    31.454058 
17882000   0.99786279   0.95487438    29.845018    56933.403   0.62950743    31.361878 
17884000    1.0007089    1.0351118    29.845304    56924.045   0.62961091    31.489354 
17886000    1.0020363   0.94436268    29.845862    56937.911   0.62945758    31.346142 
17888000    1.0058444    1.0819129    29.849123    56928.713   0.62955929    31.567647 
17890000    1.0030022    1.0024906    29.846041    56938.165   0.62945478    31.438674 
17892000   0.99921372    1.0191875     29.84615    56944.434   0.62938548    31.465487 
17894000   0.99723809     1.045885    29.845743    56953.071   0.62929003    31.507751 
17896000    0.9987903   0.98451685    29.842268    56956.945   0.62924723    31.406863 
17898000    1.0024281    1.0122053      29.8534    56971.922   0.62908182     31.46242 
17900000     1.005703   0.91028222    29.858218    56971.671   0.62908459    31.305213 
17902000   0.99982701   0.99695112    29.849782    56974.166   0.62905703    31.434616 
17904000    1.0011037    1.0075401    29.854654    56976.297   0.62903351    31.456381 
17906000    1.0023572   0.97629621    29.856866    56991.331   0.62886757    31.409333 
17908000    1.0039244   0.95763498    29.858116    57000.467   0.62876678    31.381153 
17910000    1.0011255    0.9888472    29.850291    56990.489   0.62887687    31.422693 
17912000   0.99987758   0.95331215    29.853741    56994.655    0.6288309    31.369748 
17914000    1.0017566    0.9610957    29.846955    56987.188   0.62891329    31.375139 
17916000     1.003343    1.0869416    29.851202    56992.658   0.62885293    31.579653 
17918000     1.005532   0.91332917    29.855589    56992.878   0.62885051    31.307968 
17920000     1.008906    0.9768275    29.866505    56988.109   0.62890313    31.419729 
17922000    1.0055842   0.98244571    29.856344    56998.145   0.62879239    31.418776 
17924000    1.0069526     1.035074     29.85527     57009.02   0.62867245    31.501714 
17926000   0.99936149   0.92785669    29.852647    57014.133   0.62861607    31.328678 
17928000    1.0000786    1.0031998    29.850814    57005.871   0.62870717    31.446469 
17930000    1.0002037    0.9553373    29.847867     56999.71   0.62877513    31.367229 
17932000    1.0018088   0.99016611     29.84953    57009.344   0.62866887     31.42455 
17934000   0.99937897   0.91155207    29.855686    56994.161   0.62883635    31.305272 
17936000    1.0016249   0.95440606    29.850402    57004.572    0.6287215    31.368413 
17938000    1.0030056    1.0205694    29.855428    56999.094   0.62878193    31.478517 
17940000     1.004776      0.98665      29.8621    57000.269   0.62876896    31.431277 
17942000    1.0038187   0.97613558    29.858431    56998.058   0.62879336    31.410826 
17944000    1.0070855    1.0133382    29.862466    57001.089   0.62875992    31.474111 
17946000    1.0021483    1.0395201     29.85696    57007.846   0.62868539    31.510442 
17948000    1.0058384   0.91011056     29.86615    57004.758   0.62871945    31.313713 
17950000    1.0069059    1.0608111    29.862524     57000.05   0.62877138    31.549641 
17952000    1.0061107    1.0344667    29.860407    57014.813   0.62860857    31.506052 
17954000    1.0033521    1.0279782    29.856615    57019.228    0.6285599    31.492065 
17956000    1.0035491   0.99481807    29.851974    57021.217   0.62853797    31.434723 
17958000   0.99584226   0.96026568    29.849952    57017.384   0.62858023    31.377626 
17960000    1.0010839    0.9547806    29.849008    57012.074   0.62863876    31.367814 
17962000    1.0040625    1.0383151    29.851461     57000.17   0.62877006    31.502804 
17964000    1.0010427    1.0088829    29.854439    56996.157   0.62881433     31.45886 
17966000    1.0051865    1.0573121    29.856033    56995.635   0.62882008    31.537455 
17968000    1.0002598    0.9629737    29.850009    56995.483   0.62882176    31.381402 
17970000    1.0016486   0.99803396    29.852826    56997.367   0.62880097    31.440027 
17972000    1.0053007   0.90472252    29.862099    57004.322   0.62872426     31.30108 
17974000    1.0041785   0.98573932    29.859433    57013.859   0.62861908    31.427535 
17976000    1.0072568    1.0429427    29.859797    57020.758   0.62854303    31.519099 
17978000   0.99789641   0.97962145    29.856342    57026.518   0.62847954    31.415059 
17980000    1.0025069   0.96585862    29.857072    57031.833   0.62842097    31.394034 
17982000   0.99724863   0.98592509    29.858151     57022.38   0.62852515    31.426783 
17984000   0.99925116   0.98273631    29.850749    57015.095   0.62860546    31.414109 
17986000   0.99727261    0.8951015    29.855309    57015.114   0.62860526    31.279257 
17988000    1.0028875    1.0009894     29.85996    57015.864   0.62859698    31.452378 
17990000    1.0080716   0.99849136    29.864867    57013.758    0.6286202    31.453252 
17992000    1.0066843    1.0236418    29.856771     57014.06   0.62861687    31.485175 
17994000    1.0054795    1.0024923    29.855226    57014.794   0.62860878    31.450006 
17996000    1.0043795   0.95160022    29.842713    57008.006   0.62868363    31.356352 
17998000    1.0017256    0.9902462    29.847874    57013.448   0.62862362    31.423135 
18000000    1.0015485   0.98119314    29.853528    57016.201   0.62859327    31.414463 
18002000   0.99716798   0.99208373    29.851823    57020.562   0.62854519    31.430204 
18004000   0.99897689   0.95013443    29.847918    57011.146     0.628649    31.359308 
18006000    1.0003593   0.91112693     29.84343    57004.603   0.62872116    31.292605 
18008000    1.0038063   0.95883621    29.846645    57011.369   0.62864654    31.371884 
18010000    1.0061799   0.94985957    29.852212    57019.281   0.62855931    31.363381 
18012000    1.0003689   0.92425178    29.855376    57023.082   0.62851741    31.325903 
18014000    1.0083802   0.95368917    29.856083    57029.936   0.62844187    31.373629 
18016000    1.0018673    1.0474865    29.848905    57025.364   0.62849226    31.515571 
18018000    1.0016306   0.92502146    29.850397    57019.285   0.62855927     31.32205 
18020000   0.99342567   0.98954646    29.847024    57012.363   0.62863558    31.421142 
18022000    0.9981071   0.96098053     29.85491    57005.091   0.62871578    31.383391 
18024000    0.9984602   0.99784592    29.850004    57000.397   0.62876755    31.436991 
18026000   0.99942086     1.044829     29.84878    57000.847   0.62876259    31.510503 
18028000    1.0066544    1.0120449    29.853693    56999.884   0.62877321    31.463248 
18030000   0.99659649    1.0141938    29.844869    56989.826   0.62888417    31.457556 
18032000   0.99928908    1.0375446     29.84556    56986.079   0.62892554    31.495269 
18034000   0.99872293     1.031844    29.847813    56983.194   0.62895737    31.488375 
18036000   0.99794518   0.92232017    29.849278    56983.804   0.62895064    31.315721 
18038000    1.0025864    1.0162275    29.847609    56988.578   0.62889795    31.463495 
18040000    1.0009314   0.99822682    29.849578    56992.967   0.62884952    31.436964 
18042000    1.0011061    1.0579308    29.852655    56984.015   0.62894831    31.534718 
18044000   0.99776758    1.0003213    29.845219    56978.819   0.62900567    31.435541 
18046000    1.0009565   0.94031447    29.846812     56969.29   0.62911088    31.341484 
18048000   0.99892793    1.0590077    29.840776    56972.917   0.62907083    31.524224 
18050000    0.9956361    1.0269878    29.842235     56977.21   0.62902343    31.474905 
18052000   0.99673081   0.98208081    29.844577    56968.329   0.62912149    31.405612 
18054000   0.99391116    1.0629144    29.833588    56966.024   0.62914694    31.523041 
18056000    0.9934024   0.93952089    29.838655    56963.586   0.62917387    31.331916 
18058000   0.99416239   0.97484288    29.837549     56970.27   0.62910006    31.387132 
18060000    1.0036128    1.0195423     29.84759    56964.334   0.62916561    31.468058 
18062000    0.9962237   0.94064251    29.846695    56969.807   0.62910517    31.341902 
18064000   0.99876147    1.0130247    29.840907    56964.325   0.62916571    31.451015 
18066000    1.0048515   0.96090713     29.84625    56968.523   0.62911935    31.373634 
18068000    1.0014343    1.0607161    29.848343    56969.489   0.62910868    31.534405 
18070000    1.0018719   0.98699342    29.852092    56984.148   0.62894684    31.421371 
18072000   0.99978545    1.0088326    29.852424    56986.777   0.62891782    31.456501 
18074000   0.99745359    1.0812459     29.84091    56979.644   0.62899656    31.559911 
18076000    1.0003054    1.0031083    29.847388    56971.242   0.62908932    31.441928 
18078000    1.0048162   0.99642388    29.847586    56968.698   0.62911742     31.43143 
18080000    1.0004694   0.97999332    29.856387    56976.785   0.62902812    31.414336 
18082000    1.0027815    1.0111867    29.857294    56975.262   0.62904494    31.464789 
18084000    1.0036187    1.0105913    29.853261    56976.398    0.6290324    31.459841 
18086000   0.99868557   0.93612202    29.855787    56988.059   0.62890368    31.344285 
18088000   0.99763054   0.99605612    29.847636    56995.705   0.62881931    31.431647 
18090000    1.0054393    1.0775513    29.858506     56998.55   0.62878793    31.572202 
18092000    1.0063706    1.0210869    29.853561    57006.699   0.62869804     31.47769 
18094000    1.0002673    1.0245744    29.855231    57011.003   0.62865058    31.485031 
18096000    1.0027411    1.0617457    29.853159    57010.453   0.62865664    31.542071 
18098000    0.9992098   0.94019945    29.852643    57014.976   0.62860677    31.348331 
18100000   0.99642474    0.9880956    29.850459    57008.017   0.62868351    31.422149 
18102000   0.99894911     1.041035    29.851992    56997.857   0.62879557    31.507594 
18104000    1.0047053    1.0050761    29.856786    56991.179   0.62886925    31.455014 
18106000    1.0033742   0.91987523    29.857722    56979.206   0.62900139    31.320159 
18108000    1.0023688   0.96756188    29.861332    56980.446    0.6289877    31.399616 
18110000    1.0095753   0.90419396    29.864972    56989.585   0.62888684    31.302741 
18112000   0.99443474    1.0313489    29.856266     56988.15   0.62890267    31.496184 
18114000    1.0016893    0.9717296    29.857248    56984.287   0.62894531    31.402262 
18116000    1.0060835   0.91208425    29.856474    56980.128   0.62899121    31.306548 
18118000   0.99923123    1.0175499     29.85252    56981.634   0.62897459    31.470311 
18120000    1.0019091    1.0169404    29.857864     56988.92   0.62889418    31.474893 
18122000   0.99605282    1.0197914     29.85136    56985.291   0.62893423     31.47282 
18124000   0.99734424   0.92449963    29.836472    56966.693   0.62913956    31.305939 
18126000   0.99713377    1.0112597    29.839223    56964.513   0.62916364    31.446531 
18128000    1.0028066    0.9961689    29.844084    56958.521   0.62922982     31.42724 
18130000   0.99170923   0.96097431    29.836793    56948.984    0.6293352     31.36376 
18132000    1.0001409    1.0344939    29.846625    56941.976   0.62941266    31.490212 
18134000   0.99663445    1.0578246    29.841108     56941.27   0.62942046     31.52174 
18136000   0.99600415   0.95518105    29.832534    56944.449   0.62938532    31.350175 
18138000   0.99702929   0.96528371    29.840529     56938.68   0.62944909    31.374066 
18140000   0.99600553    1.0109757    29.838217    56936.335   0.62947501    31.444279 
18142000   0.99907878   0.92177543    29.841141    56932.471   0.62951773    31.305398 
18144000    1.0021696      1.00763    29.846223    56934.984   0.62948995    31.446932 
18146000   0.99457114    1.0647242    29.845395    56942.281   0.62940928     31.53702 
18148000   0.99717973    1.0107448    29.843681    56935.088   0.62948879    31.449341 
18150000    1.0008638    1.0465217    29.851577    56941.002   0.62942342    31.514244 
18152000    1.0036949    1.0254395    29.854139    56950.798   0.62931515    31.483593 
18154000     1.002389   0.97056827    29.856807    56958.161    0.6292338    31.399267 
18156000    0.9965293    1.0273431    29.857842    56963.696   0.62917265     31.49069 
18158000   0.99674984    1.0169198    29.846499    56955.521   0.62926296    31.462548 
18160000   0.99752483    1.0797999     29.85039    56953.185   0.62928878    31.566296 
18162000    1.0063659   0.97753647    29.850168    56956.001   0.62925766    31.403643 
18164000    1.0008293   0.97635951    29.857134    56959.106   0.62922336    31.408824 
18166000    1.0066246    1.0366008    29.853765    56957.285   0.62924348    31.501141 
18168000    1.0025613   0.99993278    29.859091    56969.586   0.62910761    31.448538 
18170000    1.0033679    1.0055827     29.86122    56969.443   0.62910919    31.459643 
18172000    1.0036078    1.0126798    29.857471    56974.965   0.62904822    31.467331 
18174000    1.0003978    1.0395739    29.855345    56988.874   0.62889469    31.508362 
18176000    1.0006426    0.9273462    29.855819    56980.661   0.62898533    31.330172 
18178000   0.99757037   0.99784871    29.839847    56974.525   0.62905307    31.426118 
18180000   0.99951769    1.0173539    29.845937    56961.017   0.62920224    31.462832 
18182000   0.99856354    1.0501352    29.856554    56956.731    0.6292496    31.525423 
18184000   0.99469171   0.92017622    29.847654    56949.999   0.62932398     31.30982 
18186000   0.99824515   0.98586239    29.844616     56946.54    0.6293622    31.411063 
18188000   0.99629869    1.0451989     29.84284    56951.418    0.6293083     31.50371 
18190000   0.99813692    1.0371945     29.85031    56939.831   0.62943636    31.498125 
18192000   0.99768296   0.93785945    29.848951    56937.543   0.62946166     31.33889 
18194000   0.99451927    1.0409969    29.846177    56926.624   0.62958239    31.499649 
18196000   0.99508327    1.0433126    29.846628    56917.859   0.62967935    31.503523 
18198000   0.99311802    0.9767573    29.847313     56907.62   0.62979263    31.398232 
18200000    0.9976926    1.0539434    29.848575    56905.839   0.62981235    31.521999 
18202000   0.99732905    1.0234792    29.851367    56902.761   0.62984642    31.476334 
18204000    1.0030765   0.98466262    29.850779    56903.473   0.62983853    31.414137 
18206000    1.0027114     0.937665    29.855472    56916.603   0.62969324    31.344554 
18208000    1.0033079   0.96783791    29.850394    56918.094   0.62967674    31.387433 
18210000   0.99932417    0.9838512    29.849717    56913.149   0.62973145    31.412052 
18212000    1.0009093    0.9579598    29.850819     56923.26    0.6296196    31.372309 
18214000    1.0040297    1.0041498    29.846161    56931.025   0.62953372     31.44123 
18216000    1.0027995   0.97964857    29.847374    56946.892   0.62935832    31.403957 
18218000    1.0002348    1.0890106     29.84861    56962.324   0.62918782    31.579429 
18220000    1.0018434    1.0087628    29.844575    56972.856    0.6290715    31.448149 
18222000   0.99793284   0.97818511    29.844328    56977.092   0.62902473    31.399411 
18224000   0.99867279    1.0613097     29.84595    56974.141   0.62905731    31.533093 
18226000    1.0001211   0.95653286    29.848595     56968.18   0.62912314    31.369017 
18228000   0.99853474    1.0247958    29.847218     56960.01   0.62921337    31.475912 
18230000    1.0039169   0.98273628    29.852602     56976.03   0.62903646     31.41489 
18232000     1.002203   0.93255446    29.857326    56987.749   0.62890711    31.340144 
18234000    1.0064602    1.0412249    29.856208     56978.05   0.62901415    31.511537 
18236000    1.0051504    1.0341326    29.851209    56982.883    0.6289608    31.495401 
18238000   0.99974886    1.0006418    29.845692     56979.73   0.62899561    31.436548 
18240000   0.99995385     1.079258    29.849632    56989.523   0.62888752    31.565771 
18242000    1.0084426     1.034134    29.854942    56995.411   0.62882255    31.499498 
18244000    1.0033528    1.0462787    29.853446    57004.308   0.62872441    31.517576 
18246000    1.0098935   0.96014848     29.85264    57005.159   0.62871503      31.3798 
18248000    1.0021483     1.031293    29.849874    57009.211   0.62867034    31.490309 
18250000     1.009377   0.92270081    29.851612    57026.137   0.62848374     31.31975 
18252000    1.0004735   0.97381287    29.846465    57026.929   0.62847501     31.39595 
18254000    1.0025865    1.0039707    29.847133    57027.439    0.6284694    31.444618 
18256000    1.0020008   0.92525592    29.851446     57014.08   0.62861665    31.323338 
18258000   0.99250639     0.997366    29.847452    57006.486   0.62870039    31.433846 
18260000   0.99360391    1.0334319    29.842356    57004.752   0.62871952    31.486065 
18262000    1.0011891   0.97954146    29.849526    56999.252   0.62878018     31.40737 
18264000   0.99549812   0.93488378     29.84117    56996.533   0.62881018     31.32792 
18266000   0.99779473   0.99910203    29.845409    56997.562   0.62879883    31.434315 
18268000   0.99525762   0.95971442     29.83529    56987.575   0.62890902    31.361289 
18270000   0.99682924    1.0039858    29.840975    56980.817   0.62898361    31.437178 
18272000   0.99721104    1.0098446    29.836336    56976.546   0.62903076    31.441734 
18274000    1.0000772    1.0909249    29.846513    56973.444   0.62906501    31.580714 
18276000    1.0004156   0.99847103    29.848923    56972.568   0.62907468    31.436129 
18278000   0.99639311    1.0320264    29.851789    56971.553   0.62908589    31.492307 
18280000    1.0063064    1.0477669     29.84801    56977.172   0.62902385    31.513713 
18282000    1.0033627    1.0228726    29.852704    56990.222   0.62887981    31.479204 
18284000    1.0009938     0.997932    29.849484    56991.165    0.6288694    31.436351 
18286000    1.0040917   0.92327226     29.85501    56994.393   0.62883379    31.323239 
18288000   0.99954474    1.0233073    29.846373    57000.172   0.62877003    31.473848 
18290000    1.0030155    1.0256779    29.847283    57010.118   0.62866034    31.478812 
18292000    1.0013402    1.0082244     29.85264    57017.191   0.62858235    31.456606 
18294000   0.99880977   0.92591053    29.852635     57013.21   0.62862624    31.325546 
18296000   0.99956795   0.94331027    29.846442    57001.806   0.62875201    31.346731 
18298000    0.9982501   0.99845417    29.843046    56990.282   0.62887915    31.430719 
18300000   0.99175684    1.0522174    29.852114    56991.636    0.6288642    31.525316 
18302000   0.99846003   0.98200752    29.848364    56991.075    0.6288704    31.409906 
18304000    1.0003489    1.0166846    29.840869    56988.368   0.62890027    31.457476 
18306000   0.99637149    1.0103999    29.843856    56975.479   0.62904254    31.450107 
18308000   0.99121202    1.0614085    29.828605    56959.316   0.62922104    31.515466 
18310000   0.99481681    1.0424424    29.833652    56961.502   0.62919689    31.490435 
18312000   0.99851684   0.99745419    29.840725    56955.007   0.62926864    31.425826 
18314000   0.99720214     0.977668    29.838504    56953.852    0.6292814     31.39213 
18316000   0.99501066    1.0306933    29.842487    56949.947   0.62932456    31.480264 
18318000   0.99689063   0.92262848    29.836392    56938.545   0.62945057     31.30216 
18320000   0.99835608    1.0367888     29.83238    56935.667   0.62948239     31.47943 
18322000    1.0005511    1.0249039    29.845452     56928.16    0.6295654    31.473407 
18324000   0.99844966    1.0078157    29.838632    56936.973   0.62946795    31.439691 
18326000    1.0008258   0.99180551    29.840223    56938.119   0.62945529     31.41588 
18328000    1.0032551   0.99011559    29.850662    56941.898   0.62941351    31.423738 
18330000   0.99784075   0.98507527    29.847876    56950.522    0.6293182    31.413181 
18332000   0.99778235   0.92317756     29.83776     56938.28    0.6294535    31.304394 
18334000   0.99845211    1.0439789    29.845335    56948.595   0.62933949    31.504184 
18336000   0.99445563     1.053341     29.84536    56967.212   0.62913383    31.519631 
18338000   0.99465638   0.97003603    29.837335     56966.84   0.62913794    31.379184 
18340000   0.99626921   0.98403464    29.843312     56955.97     0.629258    31.407114 
18342000   0.99580556   0.97114957    29.832696    56952.076   0.62930102    31.375916 
18344000   0.99742977    1.0412116    29.838621    56943.246   0.62939862    31.492917 
18346000    1.0005189   0.96859683    29.841205    56944.519   0.62938454    31.380163 
18348000   0.99885339    1.0422981    29.841124    56937.856   0.62945819     31.49699 
18350000   0.99183284    1.0088597    29.834713    56932.093   0.62952191    31.437294 
18352000   0.99168062    1.0479718    29.835603    56926.503   0.62958373     31.50015 
18354000   0.99081932   0.99106487    29.834515    56913.698   0.62972538    31.408319 
18356000   0.99568118    1.0071945    29.838476    56913.798   0.62972428    31.437897 
18358000   0.99105624   0.97086688    29.833309    56906.836   0.62980132    31.374854 
18360000   0.99634569    1.0946039    29.836331    56914.657   0.62971476    31.574585 
18362000    1.0014128   0.99847539    29.843741    56925.311   0.62959691    31.429637 
18364000    1.0046591   0.99354609     29.85949    56942.585   0.62940592    31.438036 
18366000    1.0048603   0.95916691    29.861572    56961.662   0.62919512    31.386007 
18368000   0.99671735   0.96412982    29.850625    56970.993   0.62909207    31.383198 
18370000   0.99412503    1.0599569    29.846173    56977.145   0.62902415    31.531254 
18372000    1.0058891    1.0331113     29.85401    56971.196   0.62908983    31.496242 
18374000    1.0059139    1.0151083    29.853804    56994.034   0.62883775    31.468065 
18376000    1.0074504    1.0172514    29.858499    56997.905   0.62879504    31.476278 
18378000    1.0095551    1.0136298     29.86464    57017.632   0.62857749    31.477217 
18380000    1.0019618    1.0140673     29.85727    57024.962   0.62849669    31.470751 
18382000    1.0051194   0.97717531    29.863508    57021.986   0.62852949    31.418209 
18384000    1.0068278    1.0373024    29.867015    57032.867   0.62840958    31.517694 
18386000    1.0058703   0.93796281    29.866989     57042.61   0.62830224    31.359841 
18388000    1.0058881    1.0109913    29.866803    57039.606   0.62833533    31.475803 
18390000    1.0019143    1.0348984    29.854245    57033.624   0.62840124    31.501121 
18392000    1.0069422    1.0195464    29.860417    57038.012    0.6283529    31.482987 
18394000   0.99921005    1.0296278    29.857082    57035.654   0.62837887    31.495628 
18396000    1.0033473   0.97471656    29.853002    57029.889    0.6284424    31.404006 
18398000    1.0057302    1.0277655    29.861649    57028.382     0.628459    31.497023 
18400000    1.0056809    1.0377425    29.854519    57031.364   0.62842615    31.505854 
18402000    1.0029382   0.94330873    29.851372    57036.722   0.62836711    31.352578 
18404000    1.0020206    1.0421155    29.855838    57034.015   0.62839694    31.514209 
18406000    1.0011101    1.0233295    29.855255    57016.944   0.62858507    31.483244 
18408000    1.0016876    1.0668056    29.858674    57018.982    0.6285626    31.555889 
18410000   0.99918802    1.0436259    29.842855    57025.765   0.62848784    31.503389 
18412000    1.0050714    1.0113769     29.84783    57022.591   0.62852282    31.456963 
18414000    1.0025531    1.0029291    29.845573    57026.291   0.62848205    31.441369 
18416000   0.99831162   0.97339045    29.849685    57022.722   0.62852138    31.398384 
18418000   0.99429136   0.96398488    29.836592    57010.589   0.62865514        31.37 
18420000    1.0022338   0.94798036    29.849023    57004.698   0.62872011    31.356817 
18422000   0.99483932    1.0148066    29.839007     56998.73   0.62878594    31.452921 
18424000   0.99345405   0.95029602    29.840911    56979.925   0.62899346    31.351731 
18426000   0.99807408   0.97682595    29.835266    56974.601   0.62905223    31.388119 
18428000    1.0006421    1.0528194    29.843297    56974.999   0.62904784    31.516968 
18430000   0.99942984    0.9955765    29.849283    56970.913   0.62909295    31.431842 
18432000    0.9998425    1.0363893    29.845884    56965.614   0.62915148    31.493165 
18434000    1.0030271    1.0675952    29.855096    56960.788   0.62920478    31.551833 
18436000    1.0014849    1.0004236    29.844055    56959.675   0.62921707    31.434005 
18438000    1.0017821    0.9961965    29.853103    56962.292   0.62918817    31.436408 
18440000    1.0045556   0.97217873     29.84359    56968.341   0.62912136    31.388886 
18442000   0.99989565   0.97203176    29.847344    56974.959   0.62904828    31.392586 
18444000    1.0061789    1.0108292    29.857544    56975.962   0.62903721     31.46449 
18446000    1.0008868   0.97318938    29.849295    56968.713   0.62911724    31.396208 
18448000    1.0014773     1.044566    29.850208    56971.739   0.62908384    31.510664 
18450000    1.0022356   0.95257923    29.860343     56980.88   0.62898291    31.374818 
18452000    1.0018602    1.0016532    29.854805    56984.249   0.62894573    31.447396 
18454000   0.99220181   0.99074348    29.850621    56981.977    0.6289708    31.425803 
18456000   0.99676903    1.0029999    29.843926    56975.342   0.62904405    31.438409 
18458000   0.99931689    1.0713328    29.843785    56970.562   0.62909683    31.546755 
18460000   0.99587826   0.96503651    29.842823     56972.51   0.62907532    31.376879 
18462000   0.99884377    1.0583436    29.838153    56980.853   0.62898321    31.520779 
18464000   0.99666743    1.0148263    29.835653    56979.332        0.629    31.449049 
18466000   0.99819646    1.0288258    29.841177    56971.466   0.62908685    31.476605 
18468000   0.99452031    1.0313309    29.838702    56975.317   0.62904433    31.478223 
18470000   0.99613055   0.94301226    29.837824    56963.788   0.62917164    31.336639 
18472000    1.0025259   0.98025984    29.844973     56963.11   0.62917914    31.402971 
18474000   0.99853812   0.95924761    29.841431     56952.17   0.62929999     31.36574 
18476000   0.99676369    1.0497973    29.846986    56953.729   0.62928276     31.51523 
18478000   0.99915188   0.95698672    29.843479    56951.402   0.62930848    31.364175 
18480000    1.0034243    1.0445943    29.851465     56965.03   0.62915792     31.51177 
18482000   0.99956547    1.0284761    29.857415    56985.086   0.62893649    31.492677 
18484000    1.0034979    1.0031625    29.853483     57000.79   0.62876322    31.448937 
18486000    1.0068726    1.0165829    29.847581    56998.922   0.62878382    31.464325 
18488000   0.99836439    1.0113832    29.838115     56998.19    0.6287919    31.446569 
18490000   0.99227086    1.0033187    29.844603    56992.656   0.62885295    31.440077 
18492000   0.99063797     1.002421    29.852533    56991.314   0.62886776    31.446543 
18494000   0.99968964   0.98374987    29.845952    56980.152   0.62899095    31.409965 
18496000    1.0000932   0.98879412    29.848753     56983.01   0.62895941    31.420864 
18498000   0.99483134    1.0457516    29.849585    56981.848   0.62897223    31.512221 
18500000    1.0009381     1.047951    29.848018    56987.499   0.62890985    31.514315 
18502000    1.0003837   0.97337795    29.844989    56984.889   0.62893866    31.392641 
18504000   0.99847706   0.97514091    29.850619    56990.396   0.62887789    31.401224 
18506000    1.0013667   0.99139265    29.852052    56992.783   0.62885155    31.428565 
18508000     1.003642   0.97120118    29.851727    57003.005   0.62873879    31.396409 
18510000    1.0013433   0.97815605    29.847557    56997.381   0.62880082    31.403147 
18512000   0.99948915   0.91607396    29.852583    56995.522   0.62882133    31.309394 
18514000   0.99638243   0.98710125    29.839737     56989.45   0.62888832    31.409334 
18516000   0.99922376    1.0135653     29.85375    56996.332   0.62881239    31.465623 
18518000   0.99922275    1.0014178    29.852665    57001.541   0.62875493    31.445365 
18520000    1.0024762   0.98512149    29.843046     57007.35   0.62869087    31.409987 
18522000   0.99985626    1.0102045    29.840619    57004.007   0.62872773    31.447363 
18524000     1.004345   0.97690384    29.848089    57006.329   0.62870212    31.401931 
18526000   0.99983283   0.96113216    29.847126    56997.336   0.62880132     31.37564 
18528000    1.0022198   0.95665999    29.845707    56971.541   0.62908602    31.366422 
18530000   0.99758408    1.0323555    29.844222    56962.793   0.62918264     31.48501 
18532000    1.0001604   0.98744526    29.845386    56963.857   0.62917088    31.414824 
18534000   0.99591146   0.99065095    29.848172    56954.394   0.62927542    31.422444 
18536000   0.99740337    1.0639556    29.838794      56945.8   0.62937038    31.529302 
18538000    1.0002688   0.94141975    29.844186    56947.743   0.62934891    31.340049 
18540000    0.9985211    1.0312695    29.845616    56953.136   0.62928932      31.4844 
18542000   0.99823202    1.0099566     29.84797    56949.703   0.62932725     31.45279 
18544000   0.99700793    1.0156434    29.847438    56952.635   0.62929485    31.461377 
18546000    1.0000701    1.0630274    29.850513    56963.746    0.6291721    31.540079 
18548000   0.99972665   0.95831991    29.849597    56963.841   0.62917106    31.372744 
18550000   0.99786842   0.99608644    29.847558    56967.528   0.62913033    31.430833 
18552000    1.0008774    1.0406881    29.847597    56970.922   0.62909285    31.501865 
18554000   0.99688727    1.0011387     29.84306    56958.176   0.62923363    31.434104 
18556000   0.99641241    1.0334672    29.840017    56954.721   0.62927181    31.482339 
18558000   0.99162698   0.98896207    29.839227    56941.672   0.62941601    31.410465 
18560000   0.99754526   0.97108202    29.848112    56936.424   0.62947402      31.3908 
18562000   0.99888495    1.0667568      29.8475    56936.114   0.62947745     31.54217 
18564000   0.99686617   0.92562784    29.842607    56943.452   0.62939634    31.313267 
18566000   0.99814587   0.93146747     29.84633     56962.06   0.62919072    31.326752 
18568000     0.996853    1.0129571    29.846808    56962.126      0.62919    31.456747 
18570000    1.0084706   0.98963546    29.855506    56957.346    0.6292428    31.428246 
18572000     1.003363   0.96129301    29.850887    56949.742   0.62932682    31.378381 
18574000    1.0044927    1.0005939    29.856144     56949.93   0.62932474    31.446092 
18576000    1.0092384    1.0556684    29.859662    56962.189    0.6291893    31.537485 
18578000    1.0024108   0.93190058    29.852447    56967.073   0.62913536    31.333687 
18580000   0.99543152    0.9863577     29.84115    56975.392    0.6290435    31.409178 
18582000   0.99722758    1.0145636    29.840552    56976.861   0.62902729    31.453461 
18584000   0.99415593     1.006549    29.841396    56972.788   0.62907225    31.441449 
18586000    1.0016467   0.94359528    29.844917    56952.645   0.62929474    31.344365 
18588000    1.0019625   0.98106767    29.842642    56953.834   0.62928161     31.40167 
18590000    1.0050767    1.0363433    29.851204    56951.173   0.62931101    31.497994 
18592000   0.99838628   0.94447023    29.848867    56959.058   0.62922389    31.349875 
18594000    1.0020173   0.97808235     29.84446    56962.444   0.62918649    31.398979 
18596000    1.0042445   0.93199856    29.853349    56970.292   0.62909981    31.334829 
18598000    1.0040325    1.0126986    29.854317     56981.18    0.6289796    31.464383 
18600000    1.0035972    1.0148742    29.851789    56997.111    0.6288038    31.465765 
18602000   0.99941864    1.0083618    29.848586    56996.588   0.62880957    31.452191 
18604000    1.0008337    1.0018879    29.850044    57002.952   0.62873937    31.443531 
18606000   0.99251469   0.96687657    29.845883    57013.158   0.62862681    31.383961 
18608000   0.99918779   0.97775684    29.850819    57014.964    0.6286069    31.406254 
18610000    1.0002921   0.98337669    29.856375    57012.791   0.62863087     31.42069 
18612000   0.99937616    1.0408978    29.852216    57007.629   0.62868779    31.507883 
18614000   0.99893858   0.99729784    29.858856    57012.092   0.62863857    31.445297 
18616000    1.0061434   0.89322649    29.853503    57014.732   0.62860946    31.274459 
18618000    1.0003499   0.95470279    29.847452    57017.351   0.62858059    31.366276 
18620000    1.0023034   0.92650294    29.851857     57018.15   0.62857178    31.325838 
18622000    1.0024974    1.0066116    29.851081    57020.957   0.62854084    31.452587 
18624000   0.99720211    1.0637982    29.851574    57015.859   0.62859704    31.543911 
18626000    1.0027499   0.96591316    29.854765     57026.97   0.62847456    31.391682 
18628000    1.0021778   0.97459189    29.856843     57032.15   0.62841748     31.40771 
18630000    1.0027032   0.97120347    29.848033    57021.275   0.62853733    31.393213 
18632000    1.0032553   0.98314834    29.856966    57023.813   0.62850936     31.42122 
18634000    1.0060638   0.98043805    29.856424    57017.434   0.62857967    31.416191 
18636000    1.0004182   0.98202366    29.853021    57024.135   0.62850581    31.415495 
18638000    1.0010468   0.98535062    29.854845    57020.539   0.62854544    31.422513 
18640000   0.99729809   0.95692653    29.850071    57014.036   0.62861713    31.372343 
18642000    1.0010665   0.93892995    29.850094    57012.457   0.62863455    31.343696 
18644000    1.0067208    1.0664365    29.848143    57015.197   0.62860433    31.544657 
18646000   0.99476652    1.0341424    29.842987    57011.078   0.62864975    31.488009 
18648000    1.0001305    1.0463823    29.845734    56999.561   0.62877677    31.509889 
18650000   0.99228236   0.96730624    29.833089    56990.016   0.62888209    31.371225 
18652000   0.99815774    1.0293135    29.832808    56968.897   0.62911522    31.468936 
18654000   0.99502107    1.0316688    29.839276    56966.134   0.62914573    31.479069 
18656000   0.99709961   0.95782956    29.839046    56968.602   0.62911848    31.361541 
18658000   0.99843931   0.97343934    29.838008    56982.419   0.62896593     31.38569 
18660000    1.0015433    1.0348279    29.851572    56991.466   0.62886609    31.497118 
18662000    1.0044758   0.98627293    29.850851     57004.25   0.62872506    31.419538 
18664000   0.99958212   0.93378986    29.839868     57001.72   0.62875295    31.325013 
18666000    1.0036939    1.0108613    29.841996    57007.485   0.62868937    31.449883 
18668000   0.99935678   0.97814316    29.852702    56999.833   0.62877377    31.408338 
18670000   0.99936171    1.0097163    29.842774    56994.696   0.62883045    31.448479 
18672000   0.99665788    1.0031342     29.84283    56981.192   0.62897947     31.43769 
18674000   0.99565997    1.0228355    29.845646     56976.24   0.62903414    31.471687 
18676000   0.99047907   0.99630838    29.832891    56962.123   0.62919004    31.416369 
18678000   0.99610094   0.99836847    29.841402    56954.715   0.62927187    31.427948 
18680000    1.0026547    1.0392599    29.839719    56955.604   0.62926205    31.491272 
18682000   0.99473858    1.0593169    29.835738    56941.886   0.62941364    31.518759 
18684000   0.99233733     0.947766    29.833473    56946.387   0.62936389    31.339384 
18686000   0.99584533    1.0205796     29.83935    56943.074   0.62940052    31.460861 
18688000   0.99702642   0.95007691    29.840419    56941.848   0.62941407    31.349881 
18690000    0.9972213    1.0281692    29.834197    56940.178   0.62943253    31.467683 
18692000   0.99467106     1.002825    29.838572    56937.544   0.62946164    31.431719 
18694000   0.99706963    1.0728708    29.836703    56936.276   0.62947566    31.541091 
18696000    1.0013967   0.99602143    29.834927    56942.032   0.62941203    31.417391 
18698000   0.99740316    1.0228497    29.837334    56936.725    0.6294707     31.46227 
18700000   0.99996556   0.98825581    29.833725    56944.092   0.62938927    31.403908 
18702000    1.0015281    1.0643663    29.843943    56967.346   0.62913234    31.535743 
18704000   0.99645611   0.93603418    29.843927     56967.01   0.62913605    31.331736 
18706000    1.0003498   0.98948076    29.839115    56972.436   0.62907613    31.412026 
18708000   0.99617918    1.0054804    29.843345    56973.505   0.62906434    31.441719 
18710000    1.0034936    1.0206858    29.843185    56977.508   0.62902014    31.465844 
18712000   0.99702916   0.94659371    29.847569    56979.582   0.62899724    31.352494 
18714000   0.99930993    1.0448755    29.840206    56989.605   0.62888662    31.501675 
18716000    1.0005928   0.99694674    29.855019    56989.068   0.62889254    31.440261 
18718000    1.0011842    1.0079643    29.852126    56998.836   0.62878477    31.455162 
18720000    1.0026029   0.92917273    29.846695    56996.204   0.62881381    31.324355 
18722000    1.0010934    1.0221975    29.846086    56983.355    0.6289556    31.471316 
18724000    1.0016948   0.91735034    29.849473    56979.321   0.62900012    31.307899 
18726000    1.0007814   0.89247944    29.847956    56981.192   0.62897947    31.266888 
18728000   0.99431665    1.0313716    29.838517    56982.165   0.62896873    31.478299 
18730000    0.9976658   0.94899598    29.842876    56980.722   0.62898466    31.351651 
18732000   0.99592887    1.0053986    29.841666    56975.315   0.62904435    31.439962 
18734000   0.99754188    1.0102072    29.843304    56964.551   0.62916321    31.448941 
18736000    1.0008845   0.92705259    29.847193    56956.972   0.62924693    31.320466 
18738000   0.99865917   0.97777679     29.84871    56962.325    0.6291878     31.40274 
18740000   0.99817521    1.0381458    29.850984    56971.466   0.62908684    31.501226 
18742000   0.99666699   0.96798456    29.840307     56964.95   0.62915881    31.378845 
18744000    1.0003453   0.96348621    29.846133    56964.586   0.62916282    31.377511 
18746000    1.0038127    0.9902832    29.855177    56974.269    0.6290559    31.429414 
18748000    1.0021362   0.97947871    29.852993    56976.527   0.62903097    31.410116 
18750000    1.0027125      1.03862    29.852578    56983.945   0.62894908    31.503936 
18752000    1.0019173   0.98718411    29.849116    56989.628   0.62888636     31.41885 
18754000    1.0017974   0.99094765    29.856531    56988.801   0.62889549    31.432226 
18756000   0.99605371    1.0011705    29.827859    56980.653   0.62898542    31.419582 
18758000   0.99926687   0.99552141     29.83169      56973.4   0.62906549     31.41423 
18760000   0.99942682    1.0200738    29.839719    56957.804   0.62923774    31.460845 
18762000   0.99774136    1.0184035    29.840475    56950.062   0.62932328    31.458727 
18764000   0.99786314   0.99121429    29.843301    56937.636   0.62946062    31.418005 
18766000   0.99402415   0.99521802    29.839001    56933.219   0.62950947    31.419943 
18768000   0.99714863   0.94514457    29.839293    56926.789   0.62958056    31.340521 
18770000    1.0023303   0.95366213    29.850934    56927.799    0.6295694    31.365719 
18772000   0.99451632   0.96160016    29.837005     56927.21   0.62957591    31.364383 
18774000   0.99957806    1.0255967    29.840091    56927.671   0.62957081    31.469132 
18776000    1.0007035   0.98925525    29.838374    56935.843   0.62948045    31.409916 
18778000   0.99856618    0.9776904    29.840974    56926.953   0.62957876    31.393902 
18780000   0.99735391   0.96143246    29.833309    56918.416   0.62967318    31.360185 
18782000   0.99732789    1.0027352    29.840886    56923.404   0.62961801    31.433494 
18784000    1.0006274   0.97764064    29.846002    56930.296   0.62954178    31.398942 
18786000    1.0030191   0.95934257    29.850332    56933.231   0.62950933    31.374285 
18788000    1.0067687    1.0105903    29.858987     56950.73    0.6293159    31.464843 
18790000    1.0034624   0.98539119    29.857641    56959.755   0.62921618    31.423702 
18792000    1.0047689      1.03393    29.861783    56966.888    0.6291374    31.505191 
18794000    1.0015433     1.045843     29.85664    56975.065   0.62904711    31.519223 
18796000   0.99760634   0.97255475    29.849858    56977.954   0.62901521    31.396013 
18798000    1.0034742   0.97993716    29.853656    56978.681   0.62900719    31.411567 
18800000    1.0093744    1.0104391    29.861837    56979.308   0.62900026    31.468258 
18802000    1.0073658   0.98606454    29.856134      56984.6   0.62894186     31.42395 
18804000    1.0024442    1.0536162    29.851623     56986.52   0.62892067    31.526899 
18806000    1.0053937   0.98576172    29.854916    56981.441   0.62897672    31.422162 
18808000    1.0040049   0.99507303     29.85019    56978.559   0.62900854     31.43216 
18810000    0.9966788    1.0139728    29.839921    56976.935   0.62902646    31.451893 
18812000    1.0064098     1.037262     29.84579    56975.695   0.62904016     31.49475 
18814000   0.99798965   0.96293921     29.84126    56969.748   0.62910582    31.371908 
18816000    1.0066802   0.96895747    29.843667    56970.302    0.6290997    31.383895 
18818000    1.0059133   0.97975267    29.851598    56963.934   0.62917003    31.408812 
18820000   0.99596126    1.0205057    29.841751    56961.141   0.62920088    31.463658 
18822000   0.99706116   0.95071728    29.843543    56954.772   0.62927124    31.354366 
18824000   0.99478847    1.0219812    29.844463    56953.458   0.62928576    31.468496 
18826000   0.99606594     1.089706    29.844234    56942.109   0.62941118    31.575544 
18828000    1.0015013   0.99467213    29.848634    56939.095   0.62944449    31.428872 
18830000     1.000033      1.05536    29.846923    56939.483   0.62944021    31.523588 
18832000    1.0046915    1.0102632    29.855184    56950.797   0.62931516    31.460521 
18834000    1.0003147    1.0308515    29.843422    56962.085   0.62919045      31.4818 
18836000    1.0045907   0.99647778    29.855108    56966.327    0.6291436    31.438972 
18838000    1.0017273    0.9796078    29.850901    56977.193   0.62902362    31.408248 
18840000    1.0060538    1.0206627    29.856287    56974.029   0.62905854    31.478811 
18842000    1.0015165    1.0322642    29.850063    56984.567   0.62894222    31.491333 
18844000    1.0083453    0.9729147    29.856651    56995.161   0.62882531    31.403844 
18846000    1.0018273   0.99624596    29.852593    56998.664   0.62878666    31.436988 
18848000    1.0001514    1.0050439    29.859003    57003.646   0.62873172    31.457528 
18850000   0.99630787   0.96553024    29.851518     56994.21    0.6288358    31.386943 
18852000    1.0010923   0.93723705    29.852336    56988.039    0.6289039    31.342607 
18854000   0.99801398    1.0489099    29.845975    56986.385   0.62892216    31.513764 
18856000    1.0057689   0.94477859     29.85463    56994.284   0.62883499    31.357057 
18858000     1.002831   0.98241193    29.850236    56990.606   0.62887557    31.412408 
18860000   0.99651098   0.95734294    29.849947    56986.214   0.62892404    31.372138 
18862000    1.0028482   0.96990918    29.853999    56990.535   0.62887636    31.396288 
18864000   0.99887204    1.0210655    29.847275    56989.218   0.62889089    31.470873 
18866000    1.0047505    1.0339442     29.85907     56992.42   0.62885556    31.503238 
18868000    1.0026925   0.96881166    29.850055    56995.749   0.62881883    31.390739 
18870000    1.0013479   0.95962997    29.846916    56995.359   0.62882313    31.372989 
18872000    1.0058257    1.0523222     29.85423    56987.482   0.62891005    31.527477 
18874000    1.0046068    1.0767444    29.848065    56986.207   0.62892412    31.560106 
18876000     1.002806   0.94775742    29.846365    56988.245   0.62890163     31.35337 
18878000   0.99827744    1.0076447    29.840107    56984.005   0.62894843    31.442217 
18880000   0.99628788   0.95697038    29.839374    56974.892   0.62904902    31.360671 
18882000   0.99946577    0.9673511    29.835908      56971.5   0.62908648    31.373616 
18884000   0.99423333    1.0208234    29.842021    56963.366   0.62917631    31.464497 
18886000   0.99161979    1.0331894     29.84279    56960.295   0.62921023    31.484832 
18888000    1.0004641    1.0446178    29.845103     56957.11   0.62924541    31.505215 
18890000   0.99786502   0.99435458    29.846397    56955.474   0.62926348    31.426585 
18892000   0.99193332    1.0004009    29.838541    56956.248   0.62925493    31.428359 
18894000   0.99933298   0.97384797    29.840281    56946.976   0.62935738     31.38765 
18896000   0.99961143    1.0228573    29.841433    56941.818   0.62941439    31.466526 
18898000    1.0002231   0.95799532    29.843587     56942.83   0.62940321    31.365656 
18900000   0.99801166    0.9944027    29.852472    56949.619   0.62932818    31.432574 
18902000    1.0045025   0.95967187    29.856648    56955.883   0.62925896     31.38173 
18904000   0.99947644   0.95408898    29.853035    56959.845   0.62921519     31.36935 
18906000    1.0039088    0.9979812    29.853684    56969.598   0.62910748    31.440028 
18908000    1.0003003      1.04349    29.847161    56968.325   0.62912154    31.505807 
18910000    1.0081967    1.0538943    29.856528    56982.662   0.62896324    31.532133 
18912000    1.0028352    1.0493753    29.856605    57000.166   0.62877009    31.525538 
18914000     1.009101   0.97053455    29.858964    57013.888   0.62861877     31.40288 
18916000    1.0101353    1.0339393    29.865086    57018.793   0.62856469    31.510007 
18918000    1.0068812   0.99247656    29.863274    57030.921   0.62843102    31.442567 
18920000    1.0044113   0.99219654    29.863919    57035.688    0.6283785    31.442898 
18922000    1.0073534    1.0312721    29.871758    57028.254   0.62846041    31.512708 
18924000    1.0086804   0.98391593      29.8589    57019.887   0.62855263    31.424267 
18926000    1.0070306    1.0372904    29.857136     57021.72   0.62853242    31.507474 
18928000    1.0042148    1.0284968    29.857949    57024.024   0.62850703    31.494362 
18930000    1.0070437   0.99973257    29.863578    57023.379   0.62851414    31.454207 
18932000    1.0013013   0.95614338    29.851708    57009.697   0.62866498    31.372619 
18934000    1.0034483   0.95963364    29.852355      56996.4   0.62881164    31.378462 
18936000    1.0000214    1.0022926    29.848029    57001.951    0.6287504    31.442131 
18938000   0.99575092   0.95186727    29.852682    57005.466   0.62871164    31.366679 
18940000    1.0008654   0.99559013    29.852003    57004.908    0.6287178    31.435528 
18942000     1.000214    0.9755322    29.848021     57000.49   0.62876652    31.399522 
18944000    1.0009257    1.0056546     29.84549    56994.367   0.62883407    31.444727 
18946000   0.99950921   0.95626134    29.846222    56985.521   0.62893169    31.366676 
18948000   0.99755102   0.99801263    29.842426    56975.553   0.62904172    31.428986 
18950000    1.0042924    1.0649761    29.841282    56978.144   0.62901311    31.534373 
18952000    1.0007238    1.0355287    29.846206    56980.297   0.62898935    31.492544 
18954000     1.005132    1.0896747    29.850576     56971.86    0.6290825    31.582741 
18956000    1.0012047   0.99736341    29.848286        56973   0.62906991    31.433743 
18958000   0.99711601    1.0602637    29.855493    56965.961   0.62914764    31.540732 
18960000    1.0006219    0.9441984    29.856034    56966.835   0.62913798    31.356815 
18962000    1.0036942      1.00906    29.848103    56968.226   0.62912263    31.452019 
18964000   0.99790123   0.93227764    29.851477    56970.076   0.62910219    31.333394 
18966000   0.99725029    1.0304933    29.841935    56967.697   0.62912847    31.479905 
18968000   0.99768077   0.90749659    29.843421    56964.922   0.62915911    31.285817 
18970000   0.99698359    1.0351948    29.843699    56962.781   0.62918277    31.488999 
18972000    1.0036833   0.99995975    29.839892    56957.609    0.6292399    31.429047 
18974000   0.99356272   0.99551951    29.839158    56945.184   0.62937719    31.420911 
18976000    1.0004125    1.0369833    29.835031    56948.604    0.6293394    31.482764 
18978000    1.0015376   0.93480579    29.850567     56954.83    0.6292706    31.336106 
18980000    1.0032243   0.94320959    29.850079    56954.031   0.62927943    31.348951 
18982000   0.99896128    1.0530985     29.84126    56974.748   0.62905061    31.515367 
18984000   0.99711528   0.91041869    29.849004    56971.163   0.62909019    31.296203 
18986000    1.0011794   0.98947068    29.846296    56960.281   0.62921038    31.418855 
18988000   0.99742837    1.0440852     29.84635    56957.898   0.62923671    31.505638 
18990000   0.99936886   0.92910265    29.844981    56950.709   0.62931614     31.32135 
18992000   0.99994958   0.99707008    29.846906    56965.826   0.62914914    31.431698 
18994000    1.0035463   0.99852792    29.860343    56973.752   0.62906161    31.447672 
18996000    1.0006177   0.94159319     29.85607    56983.745   0.62895129    31.353154 
18998000     1.000488   0.99952629    29.851677    56993.056   0.62884854    31.441131 
19000000    1.0025108    1.0002539    29.847505    56996.046   0.62881556      31.4382 
19002000   0.99774392    1.0465279    29.850297    56996.838   0.62880681    31.514605 
19004000    1.0015251    1.0480869    29.848097     57000.18   0.62876994    31.514982 
19006000    1.0003874   0.97088862    29.846177    56990.436   0.62887745    31.390021 
19008000    1.0042324    1.0374625    29.855751    56985.399   0.62893303    31.505311 
19010000    1.0055574   0.98852085    29.857662    56988.084    0.6289034    31.429478 
19012000    1.0078766    1.0329045    29.856537    57001.398   0.62875651     31.49931 
19014000     1.006927    1.0302915    29.854754    57011.303   0.62864727    31.493656 
19016000    1.0031784   0.88045884    29.852588    57022.999   0.62851833    31.253437 
19018000    0.9979281   0.98855637    29.848739    57018.897   0.62856354    31.421462 
19020000   0.99784408   0.99367175    29.843997    57018.278   0.62857037    31.424841 
19022000    0.9999905    1.0012914    29.847419    57013.287    0.6286254    31.440245 
19024000    1.0021186    1.0233438    29.848368    57011.408   0.62864611    31.476222 
19026000     1.000867   0.92638054    29.851084    57012.239   0.62863695    31.324717 
19028000     1.000575   0.92869937    29.850285    57013.548   0.62862252    31.327641 
19030000    1.0009579   0.99259047    29.845355    57003.658   0.62873158    31.424074 
19032000    1.0012665    1.0282292     29.84686    56995.429   0.62882236    31.482026 
19034000   0.99523468    1.0058733    29.850297    56986.485   0.62892105     31.44966 
19036000     1.001257      1.00466    29.840306    56985.006   0.62893738    31.437699 
19038000   0.99615459    1.0334154    29.848027    56976.981   0.62902596    31.490909 
19040000   0.99735972   0.99749714    29.836726     56985.81    0.6289285    31.422752 
19042000   0.99974766     1.012303    29.844409    56988.814   0.62889535    31.454061 
19044000   0.99284886   0.96694559     29.84107    56984.077   0.62894763    31.378473 
19046000   0.99187615    1.0523909    29.836245    56977.528   0.62901992    31.509309 
19048000   0.99694974   0.99669808    29.833385    56957.277   0.62924356    31.417347 
19050000   0.99899961    1.0332684    29.837444    56945.577   0.62937285    31.479186 
19052000    1.0003286   0.94638551     29.83638    56944.467   0.62938511    31.340047 
19054000   0.99872718    1.0248523    29.838743     56949.46   0.62932994    31.467225 
19056000   0.99644869    1.0132056    29.837863    56943.762    0.6293929    31.447677 
19058000   0.99711883    1.0162712     29.84109    56939.768   0.62943705    31.455662 
19060000   0.99605618    0.9928644     29.83916    56945.456   0.62937418    31.416702 
19062000   0.99469469   0.93656539    29.834374    56957.763   0.62923819    31.322786 
19064000   0.99828335   0.96808653    29.842274    56962.495   0.62918592    31.380907 
19066000   0.99889229   0.97245188    29.840107    56951.695   0.62930523    31.385385 
19068000    1.0040631    1.0574459    29.839658    56946.189   0.62936608    31.519834 
19070000    1.0011293   0.98563718    29.839921    56959.406   0.62922005    31.406364 
19072000    1.0004948    1.1130616     29.84404    56953.974   0.62928005    31.612826 
19074000   0.99840294    1.0288268    29.843823    56948.514   0.62934039    31.478593 
19076000   0.99239874   0.98309321    29.841873    56957.374   0.62924249    31.404217 
19078000   0.99494654   0.93798263    29.836186    56940.849   0.62942511    31.326408 
19080000   0.99415282    1.0501992    29.841179    56934.475   0.62949557    31.509498 
19082000   0.99317119   0.95386943    29.839674    56932.763   0.62951451     31.35492 
19084000    0.9977911    1.0547708    29.840304     56940.03   0.62943416    31.516049 
19086000    1.0022173   0.91768097    29.842487      56940.1   0.62943339    31.300434 
19088000   0.99499879    1.0859761    29.835328    56936.214   0.62947635    31.560534 
19090000    1.0012554   0.99940906    29.838749    56935.063   0.62948907      31.4264 
19092000   0.99332002   0.98353504    29.834924    56927.515   0.62957253    31.397151 
19094000   0.99579383   0.98663356    29.836606    56928.204   0.62956492    31.403773 
19096000   0.99811006    1.0267509    29.843355    56930.869   0.62953545    31.474321 
19098000    1.0003117    1.0067093    29.842143     56943.33   0.62939768    31.441623 
19100000    0.9917352   0.97170144    29.839119    56939.738   0.62943739     31.38288 
19102000   0.99445633    1.0151905    29.846231    56936.413   0.62947414    31.458991 
19104000   0.99569306    1.0572928    29.829175    56945.146   0.62937761    31.509077 
19106000   0.99413959    1.0198174    29.838717    56942.584   0.62940593    31.459003 
19108000     0.997565   0.93434203    29.843307    56943.335   0.62939762    31.327809 
19110000   0.99742691   0.95089018    29.845881    56946.325   0.62936458    31.356755 
19112000   0.99843687   0.97005513    29.857121    56957.245   0.62924392    31.398741 
19114000    1.0041141   0.97312237    29.851272    56962.606   0.62918469    31.397912 
19116000    1.0015371    1.0402181     29.85278    56973.186   0.62906786    31.506366 
19118000    1.0001172    1.0332047    29.851276    56976.003   0.62903676    31.493795 
19120000    1.0026589   0.97061284    29.854288    56983.129    0.6289581    31.397495 
19122000    1.0071041   0.95615328    29.852797    56979.507   0.62899807    31.372918 
19124000    1.0046314    1.0239132    29.858447    56983.564   0.62895329     31.48641 
19126000    1.0051689    1.0514489    29.861307    56982.852   0.62896115     31.53303 
19128000    1.0048251    1.0051456    29.857204    56986.964   0.62891576    31.455424 
19130000      1.00415    1.0223072    29.853528    56980.638   0.62898558    31.478855 
19132000    1.0036179   0.94714881    29.856983    56979.616   0.62899686    31.362791 
19134000    1.0027122   0.99809938    29.847811    56981.549   0.62897554    31.434676 
19136000      1.00274   0.96081196    29.855453    56978.386   0.62901045    31.382951 
19138000   0.99886067   0.95255732    29.855654    56975.802   0.62903898    31.369959 
19140000    1.0058655    1.0483811     29.85776    56982.335   0.62896686     31.52459 
19142000    0.9984699       1.0186    29.856829    56993.876   0.62883949    31.476638 
19144000    1.0043395   0.99449944    29.860699    56992.953   0.62884967    31.442157 
19146000    1.0070744   0.96051053    29.857002    56993.651   0.62884198     31.38443 
19148000    1.0046594   0.94052362    29.850712    57002.903   0.62873991    31.346598 
19150000    0.9996257   0.92378148    29.852561    56998.209   0.62879168    31.321699 
19152000   0.99908094     1.012613    29.853056    56995.324   0.62882352    31.463385 
19154000    1.0001513   0.94252123    29.846595    56999.453   0.62877796    31.345568 
19156000    1.0075477    1.0165345    29.855081    56996.417   0.62881146    31.471677 
19158000    1.0029256    1.0238624    29.857654    56993.261   0.62884627    31.485814 
19160000    1.0004414    1.0397845    29.854826    56992.139   0.62885866    31.508273 
19162000     1.001664   0.96543514    29.854797    56997.838   0.62879578    31.390169 
19164000   0.99881465     1.004872     29.85461    57001.967   0.62875024    31.452816 
19166000     1.003623   0.98289781    29.846355    56996.602   0.62880941    31.409464 
19168000    1.0019852   0.93940301    29.849316    57001.662   0.62875359    31.343388 
19170000   0.99774984   0.97084092    29.842041    57000.218   0.62876952    31.386074 
19172000   0.99919326   0.97767452    29.845631    56992.414   0.62885562     31.40032 
19174000   0.99776966   0.95563045    29.840908      56979.6   0.62899705    31.360201 
19176000   0.99918812   0.92400485    29.849908     56973.06   0.62906925    31.318753 
19178000   0.99564951    1.0436807     29.84117    56967.389   0.62913187    31.500092 
19180000    1.0011952     1.028942    29.853539    56976.484   0.62903144    31.489296 
19182000   0.99854013   0.96732916    29.847566    56979.616   0.62899687    31.385458 
19184000   0.99663915    1.0151669    29.844536    56979.464   0.62899854    31.458478 
19186000   0.99226772    1.0222526    29.842118    56968.626   0.62911821    31.467016 
19188000   0.99922128   0.95498984    29.844094    56959.094   0.62922349    31.361822 
19190000   0.99650658   0.98641966    29.840174    56961.964   0.62919179    31.407931 
19192000    1.0033036    1.0186235      29.8549    56953.884   0.62928106     31.47361 
19194000   0.99937071    1.0165843    29.843967    56958.875   0.62922591    31.459578 
19196000     1.001147   0.93562954    29.848452    56967.035   0.62913578    31.335618 
19198000    1.0057295   0.96839261    29.858387    56981.659   0.62897432    31.398025 
19200000    1.0041871   0.99016549    29.856359    56988.431   0.62889957    31.430801 
19202000   0.99981549   0.95225482    29.858524    56989.693   0.62888565    31.372718 
19204000    1.0046165     0.999071    29.857162    56993.929   0.62883891    31.445917 
19206000    1.0033967   0.97240056     29.85812    57008.573   0.62867737     31.40486 
19208000    1.0054385    0.9888705    29.857793    57015.198   0.62860433    31.430914 
19210000   0.99980527   0.92602836    29.857994    57012.636   0.62863257    31.331078 
19212000    1.0092836   0.99089953    29.859595    57024.975   0.62849655    31.436214 
19214000    1.0068018   0.96836778    29.859835    57029.072   0.62845139    31.400715 
19216000    1.0042839    1.0184575    29.854503    57020.317   0.62854789    31.474837 
19218000    1.0043791    1.0414434    29.860134    57015.391   0.62860219    31.516894 
19220000    1.0042559    1.0019037    29.856046    57010.044   0.62866116    31.449756 
19222000   0.99690624   0.98600806    29.853754    57010.982   0.62865081    31.422205 
19224000    1.0052903   0.98111166    29.857934     57009.15   0.62867101    31.418546 
19226000    1.0033327   0.98786421     29.85801     57021.68   0.62853287    31.429708 
19228000    1.0046684   0.98856283    29.851971    57012.209   0.62863728     31.42452 
19230000    1.0001271   0.98232819    29.845699    57009.118   0.62867137    31.408245 
19232000   0.99428382   0.95706491    29.835969    56986.506   0.62892082    31.357727 
19234000    0.9932135   0.99321985    29.839509    56968.488   0.62911973    31.418255 
19236000   0.99902962    1.0239755    29.843933    56962.342   0.62918762    31.471389 
19238000   0.99899994     1.031781    29.842425    56960.179    0.6292115    31.482225 
19240000   0.99280745    1.0074393     29.84235    56960.553   0.62920738    31.443475 
19242000   0.99833109     1.073853    29.842646    56967.841   0.62912688     31.54954 
19244000    1.0021754     0.993775    29.833533    56958.047   0.62923506    31.412872 
19246000   0.99277989    1.0220842    29.837539    56943.628   0.62939439    31.461456 
19248000   0.99842483   0.99951148    29.836802    56939.611    0.6294388    31.424742 
19250000   0.99483777   0.99193897    29.831065    56934.871   0.62949119    31.406844 
19252000   0.99654131    1.0508758    29.831567    56933.755   0.62950353     31.50094 
19254000   0.99571384    1.0567253    29.833597     56931.99   0.62952305     31.51221 
19256000   0.99883775   0.96580946    29.837361    56935.263   0.62948686    31.371642 
19258000   0.99600095    0.9607997    29.838664    56947.321   0.62935357    31.365309 
19260000    1.0024846    0.9811763    29.837448    56941.083   0.62942252      31.3963 
19262000   0.99368281    1.0004049    29.844564     56930.32   0.62954152    31.433665 
19264000    1.0051972   0.99235182    29.847477    56943.769   0.62939283    31.424158 
19266000    1.0023593    1.0189743    29.852025    56955.809   0.62925978    31.471347 
19268000    0.9968375   0.98990414    29.847985    56971.099    0.6290909    31.421532 
19270000     1.003896   0.98268018    29.839673     56977.07   0.62902498    31.401901 
19272000   0.99509108    1.0193331    29.847783     56970.02   0.62910281    31.468079 
19274000    0.9968487    1.0030919    29.838528    56962.564   0.62918517      31.4328 
19276000   0.99482407   0.99279714     29.84076    56966.076   0.62914637    31.418766 
19278000    1.0019866   0.90770419    29.853187    56964.184   0.62916726    31.295894 
19280000   0.99765307    1.0681392    29.851385    56962.587   0.62918491     31.54904 
19282000    0.9980394     1.073547    29.844568    56960.973   0.62920274     31.55077 
19284000   0.99416865    0.9587001    29.836582    56952.358   0.62929791    31.360026 
19286000   0.98936478   0.99847988    29.838989    56952.318   0.62929835    31.425645 
19288000   0.99426693   0.97927499    29.839281    56950.896   0.62931407     31.39538 
19290000   0.99946805    1.0034991    29.851582    56957.941   0.62923623    31.446371 
19292000    1.0051817   0.89221877    29.858829    56970.156   0.62910132    31.277073 
19294000    1.0048382    1.0254303    29.854776    56985.441   0.62893257    31.485205 
19296000    1.0053829    1.0584304    29.852921    57002.781   0.62874125    31.536332 
19298000   0.99857085   0.93609702    29.848184     57012.97   0.62862888    31.337293 
19300000    1.0010071   0.97935356     29.85023    57010.809   0.62865272    31.408091 
19302000    1.0029161    1.0531926     29.85687    57006.061   0.62870508    31.532047 
19304000    1.0050484    1.0496092    29.857021    57016.264   0.62859257    31.526797 
19306000    1.0063132   0.98340236    29.861249    57021.116   0.62853908    31.425834 
19308000    1.0115704   0.99806086    29.861426    57029.075   0.62845137    31.449554 
19310000    1.0084282   0.95019906    29.863629    57031.079   0.62842928    31.375651 
19312000    1.0061356   0.97535783    29.863405    57040.653   0.62832381    31.415722 
19314000    1.0073633     1.071221     29.85704    57049.209   0.62822957    31.562182 
19316000    1.0073564    1.0006813    29.853758    57055.608   0.62815912    31.446796 
19318000    1.0039455   0.99124061    29.857605    57056.213   0.62815245     31.43563 
19320000    1.0049686   0.98439439    29.857446    57059.022   0.62812153     31.42465 
19322000    0.9981998     1.013119    29.845833    57056.244   0.62815211    31.458689 
19324000    1.0025384   0.97381275    29.849377    57054.797   0.62816804    31.399619 
19326000   0.99708957    1.0426848     29.84432    57048.486   0.62823754    31.504018 
19328000    1.0011113    1.0394725    29.852569    57039.349   0.62833817     31.50689 
19330000    1.0020152   0.98330976    29.847933    57027.468   0.62846907    31.412544 
19332000    1.0039513   0.95301268    29.852058    57034.096   0.62839604    31.368638 
19334000   0.99689159    1.0593352    29.840388    57028.033   0.62846284    31.525985 
19336000   0.99468354     1.042281    29.835937    57022.572   0.62852303    31.494239 
19338000   0.99449778    1.0654896    29.836284    57001.923   0.62875072    31.530898 
19340000   0.99440948    1.0689126    29.841179    57008.793   0.62867494    31.541441 
19342000   0.99713182    1.0530116    29.841983    57011.875   0.62864096    31.517044 
19344000   0.99879836    1.0527741    29.833714    57009.593   0.62866613     31.50833 
19346000   0.99386152    1.0453952    29.840041    57006.435   0.62870096    31.502827 
19348000   0.99820972   0.95116372    29.842989    56996.144   0.62881446    31.355619 
19350000   0.99493655    0.9300746    29.836801    56979.301   0.62900035    31.315456 
19352000   0.99848798   0.95884928    29.836941    56970.651   0.62909584    31.361111 
19354000   0.99656188    1.0239009    29.836667    56958.099   0.62923448    31.463884 
19356000   0.99413968    1.0449532    29.832173    56959.326   0.62922093    31.492882 
19358000   0.99353294    0.9411333     29.82724    56949.865   0.62932546    31.322703 
19360000   0.99997758   0.94962713    29.836505    56949.339   0.62933127    31.345451 
19362000   0.99844693   0.98708475    29.841332    56953.677   0.62928334    31.409918 
19364000   0.99863944    1.0547509    29.847022     56944.38   0.62938607    31.522863 
19366000   0.99680099   0.99495568    29.847798    56951.442   0.62930803    31.428829 
19368000    1.0010964    1.0147141     29.84983    56939.698   0.62943784    31.461926 
19370000    1.0027967   0.93198893    29.846388    56940.299   0.62943118    31.327073 
19372000    1.0003764    1.1053483    29.854244    56951.921   0.62930275    31.610709 
19374000    1.0074591    1.0332253    29.852952    56966.863   0.62913769     31.49524 
19376000    1.0051348   0.92933276    29.855638    56984.677   0.62894101    31.333253 
19378000    0.9997853   0.98992544    29.852521    56994.301    0.6288348    31.426743 
19380000    1.0020076    1.0570292    29.856169    57003.576   0.62873248    31.537375 
19382000    1.0073975   0.98663099    29.858775     57006.13   0.62870432    31.428084 
19384000    1.0046009    1.0894105    29.856767    57002.226   0.62874737    31.589435 
19386000    1.0091315    1.0237413    29.863954    57002.893   0.62874002    31.492197 
19388000   0.99938974   0.94705153     29.85147    57007.537    0.6286888    31.357862 
19390000    1.0026983   0.97690685    29.857403    57013.286    0.6286254    31.411439 
19392000   0.99665636   0.94176111    29.848695    57011.951   0.62864012    31.346787 
19394000    1.0022138   0.89823838    29.852922    57008.387   0.62867943    31.281692 
19396000     1.002016    0.9497681    29.853059    57022.713   0.62852148    31.364174 
19398000   0.99927102   0.99705536    29.850617     57037.05    0.6283635    31.437366 
19400000    1.0064821    1.0402249    29.857341    57044.458    0.6282819    31.513006 
19402000    1.0064965   0.97110049    29.857154    57048.564   0.62823667     31.40291 
19404000   0.99725854    1.0050427    29.846921    57055.491    0.6281604    31.446899 
19406000    1.0039025   0.99385528    29.850443     57051.93    0.6281996    31.432512 
19408000    1.0038992    1.0036777    29.852414    57056.627   0.62814789    31.450251 
19410000    1.0047668    1.0139611    29.846733    57053.753   0.62817953    31.460859 
19412000    1.0016668   0.94757823    29.851177    57047.283   0.62825078    31.359457 
19414000   0.99884578   0.90537424    29.851196    57040.259   0.62832814    31.292122 
19416000    1.0017258    1.0368948    29.847702    57036.053   0.62837447    31.497825 
19418000    1.0035196    1.0113021    29.849356    57026.206   0.62848298    31.458472 
19420000    1.0048018    1.0315762     29.84862    57008.462    0.6286786    31.489484 
19422000     0.994509   0.99263579     29.85213    57008.445   0.62867879    31.431054 
19424000   0.99644617    1.0290409    29.841535    56999.054   0.62878236    31.478096 
19426000   0.99680668    1.0657924    29.849376    56999.156   0.62878124    31.544389 
19428000    1.0017704   0.95486541    29.859867    57005.284   0.62871365    31.378627 
19430000    1.0027233    1.0409527    29.852579    57008.943    0.6286733    31.508372 
19432000    1.0033455   0.98635836    29.855808    57005.055   0.62871618    31.424654 
19434000    1.0033835    1.0296201    29.853316    57002.556   0.62874374    31.490899 
19436000    1.0068586   0.98732372    29.854463    57011.866   0.62864106    31.425031 
19438000    1.0026221    1.0298231    29.856334    57014.721   0.62860958    31.494589 
19440000   0.99769761    1.0579967     29.85132    57022.485     0.628524    31.534624 
19442000    1.0070489   0.97144627    29.864834    57025.717   0.62848837    31.410521 
19444000    1.0055762    1.0019742    29.849735    57025.372   0.62849217    31.443986 
19446000      1.00223    1.0067762    29.851974    57013.125   0.62862718    31.453522 
19448000   0.99704691    1.0298807    29.849294    57011.024   0.62865035    31.487535 
19450000    1.0057038    1.0348139    29.854032    57002.805   0.62874099    31.499882 
19452000    1.0012395     1.001342    29.853446     57003.09   0.62873784    31.446068 
19454000    1.0049325    1.0361316    29.849525    57017.209   0.62858215    31.497888 
19456000   0.99798582   0.99244463    29.844211    57004.965   0.62871716    31.422735 
19458000    1.0052406   0.96215788    29.846444    57002.844   0.62874056    31.376738 
19460000    1.0020674    1.0059186    29.849942    57004.451   0.62872283    31.449882 
19462000    1.0032277    0.9562784     29.85901    57015.166   0.62860468    31.380281 
19464000    1.0086485    1.0036425    29.858395    57030.175   0.62843925    31.455435 
19466000     1.003269    1.0105123    29.858148    57031.297   0.62842688    31.466151 
19468000    1.0048813    1.0610772    29.859785    57028.408   0.62845872    31.548165 
19470000    1.0066026   0.99573564    29.857537    57033.081   0.62840722    31.442075 
19472000    1.0064281    1.0226246    29.866299    57044.035   0.62828655     31.49394 
19474000    1.0112123   0.99012077    29.859751    57039.819   0.62833299    31.435541 
19476000     1.005116   0.97189546    29.863225     57044.34    0.6282832    31.410131 
19478000     1.004922   0.97307768    29.859618    57046.705   0.62825715     31.40847 
19480000    1.0012554    1.0557338    29.856912    57044.079   0.62828606    31.537252 
19482000    1.0040948   0.99276759    29.849512    57035.135   0.62838459    31.429385 
19484000   0.99955844    1.0590461    29.851327    57045.023   0.62827567    31.536967 
19486000   0.99729141   0.97512169    29.849876    57039.089   0.62834103    31.401774 
19488000    1.0004817    1.0147246    29.842367    57023.432   0.62851356     31.45685 
19490000   0.99987932   0.96614419    29.845041    57012.829   0.62863045    31.381945 
19492000   0.99767662    1.0314243    29.853358    56994.041   0.62883767    31.493565 
19494000   0.99906155   0.96296107    29.840693    56998.819   0.62878496    31.372157 
19496000   0.99891936     1.022383    29.845362    56993.589   0.62884266    31.471179 
19498000    1.0027388   0.99479376    29.852814    56992.395   0.62885584    31.434725 
19500000    1.0030615   0.98114039    29.854234    56992.708   0.62885238    31.414442 
19502000    1.0022885     1.016953    29.860056    56990.397   0.62887787    31.477147 
19504000    1.0048003   0.91278545    29.865157     57004.47   0.62872262    31.316967 
19506000    1.0107069    1.0439572    29.865974    57008.384   0.62867946    31.526529 
19508000     1.012016   0.99395124    29.867208    57026.523   0.62847949    31.448725 
19510000    1.0049344   0.97029583    29.850522    57027.489   0.62846884    31.394426 
19512000   0.99883235    0.9772599     29.85234    57025.672   0.62848887    31.407275 
19514000   0.99898118   0.99298119    29.845235    57015.648   0.62859937    31.424908 
19516000   0.99891601    1.0723193    29.847647    57019.706   0.62855463    31.553655 
19518000    1.0022386   0.92214472    29.848443    57008.962   0.62867309    31.315254 
19520000    1.0016483    1.0657819    29.848148    56995.016   0.62882692    31.543021 
19522000    1.0023348    0.9765639    29.841743      56992.9   0.62885026    31.394678 
19524000   0.99582951    1.0367283    29.841158    56984.781   0.62893986    31.489533 
19526000   0.99900191   0.96073463    29.841889    56971.397   0.62908761    31.369076 
19528000   0.99605792    1.0850261    29.839871      56966.1   0.62914611    31.564472 
19530000   0.99637474    1.0317729    29.841899     56964.21   0.62916698    31.481802 
19532000   0.99865807    1.0313598    29.838448    56956.793   0.62924891    31.477482 
19534000   0.99704143    1.0069496    29.842889    56943.544   0.62939532    31.442757 
19536000     1.003316    1.0389887    29.843585    56937.527   0.62946183    31.494184 
19538000   0.99760383    1.0331057    29.842903    56930.481   0.62953974    31.483953 
19540000   0.99671088   0.97569367    29.839764    56942.343   0.62940859    31.389939 
19542000   0.99746943    1.0039091    29.838036    56947.745   0.62934888    31.433191 
19544000    1.0006572    1.1101785    29.844379     56947.51   0.62935148    31.608383 
19546000   0.99366087   0.89449412    29.840169    56939.029   0.62944522    31.261252 
19548000   0.99394899    1.0576458    29.836496    56925.443   0.62959545    31.516378 
19550000   0.99193483    1.0004302    29.833647    56907.928   0.62978923    31.422163 
19552000   0.99776845   0.97660898    29.836759    56895.585   0.62992586    31.387114 
19554000   0.98846811    1.0716298    29.832273    56887.976   0.63001011    31.533245 
19556000   0.99585552   0.97078626    29.839566     56899.15   0.62988639    31.380774 
19558000   0.99751917    1.0141744    29.846004    56910.602   0.62975963    31.456419 
19560000   0.99824988    1.0190143    29.840471     56923.31   0.62961905    31.458933 
19562000     0.993395    1.0063657    29.836807    56934.609   0.62949409    31.435497 
19564000   0.99686367   0.99554483    29.840536    56936.166   0.62947687    31.422079 
19566000     1.005687    1.0639816    29.848914    56938.639   0.62944954     31.53925 
19568000    1.0063337    0.9228869    29.857123    56947.807    0.6293482     31.32354 
19570000    1.0093697   0.98408584    29.855777    56957.424   0.62924195      31.4197 
19572000    1.0052671    1.0101516    29.854938    56963.593   0.62917379    31.460459 
19574000    1.0015492   0.96498664    29.846754    56959.484   0.62921918     31.38038 
19576000    1.0025795   0.94413019    29.850816    56966.347   0.62914338    31.351476 
19578000    1.0047415   0.99667137    29.851866    56968.255    0.6291223    31.436091 
19580000   0.99508067   0.95009881    29.838727    56955.957   0.62925815    31.348598 
19582000   0.99416013   0.99864155    29.837581    56954.379   0.62927558    31.424551 
19584000   0.99850503   0.96829927    29.846049     56940.26   0.62943162     31.38442 
19586000    1.0003178   0.97656312     29.84075    56929.079   0.62955525    31.391945 
19588000    1.0018204   0.97870533    29.840027    56942.272   0.62940938    31.394986 
19590000   0.99812498   0.96691446    29.839585    56950.114   0.62932271    31.376022 
19592000   0.99488222    1.0078271    29.847662    56964.171   0.62916741    31.449504 
19594000   0.99761811    1.0106233    29.843871    56964.554   0.62916318    31.450169 
19596000    1.0005078    1.0656872    29.837844    56954.645   0.62927265    31.531366 
19598000   0.99176953   0.98694367    29.828347     56953.32   0.62928728    31.396699 
19600000   0.99776096   0.90518854    29.838542    56943.179   0.62939936     31.27672 
19602000   0.99570107    1.0014775    29.834181    56944.304   0.62938692    31.425376 
19604000   0.99284449   0.93975136    29.836098    56936.535   0.62947279    31.329016 
19606000   0.99583468     1.000013    29.838845    56935.295   0.62948651    31.427462 
19608000     0.996418    1.0023912    29.839351    56922.969   0.62962282    31.431402 
19610000   0.99882775    1.0252912     29.84313     56927.68   0.62957072    31.471686 
19612000   0.99666898   0.95963682    29.844635    56924.873   0.62960176    31.368832 
19614000   0.99757115    1.0374615     29.84827    56936.807    0.6294698    31.496421 
19616000   0.99884838   0.96587803    29.841248     56932.88   0.62951321    31.375573 
19618000    0.9961053    1.0418793    29.842014    56941.292   0.62942021    31.497314 
19620000   0.99954286   0.92689802    29.850046    56956.755   0.62924934    31.323068 
19622000    1.0047939   0.98451137    29.846908    56978.992   0.62900375      31.4121 
19624000    1.0077398    1.0123381    29.857546    56986.183   0.62892439     31.46718 
19626000    1.0023372    1.0389715    29.853681    56985.335   0.62893375    31.505638 
19628000    1.0013955    1.0192468    29.855455    56985.617   0.62893063    31.476058 
19630000    1.0039726   0.98703802    29.849903    56980.811   0.62898368    31.419161 
19632000    0.9946496     1.007604    29.845865    56972.076   0.62908011    31.447575 
19634000    1.0022875    1.0363588    29.849559    56972.967   0.62907028    31.497004 
19636000    1.0043738   0.99087192    29.852736    56972.998   0.62906994    31.427874 
19638000    1.0033157   0.93657521    29.860214      56975.6    0.6290412    31.349108 
19640000    1.0039635    1.0896209    29.852834     56982.43   0.62896581    31.585235 
19642000    1.0049424     1.059046    29.854108    56989.401   0.62888887    31.538103 
19644000    1.0064379    1.0320879    29.852835    56997.879   0.62879533    31.494208 
19646000    1.0058548     1.000771    29.857638    57002.548   0.62874382    31.449337 
19648000    1.0090392   0.98989318    29.862546     57014.02   0.62861731    31.437261 
19650000    1.0036498   0.96265305    29.862983    57028.753   0.62845491     31.39476 
19652000    1.0029335   0.95977304    29.863813    57031.274   0.62842713    31.391076 
19654000    1.0070202    1.0070821    29.862151    57034.318   0.62839359     31.46478 
19656000    1.0011965    1.0141251    29.863874    57029.844   0.62844289    31.477585 
19658000     1.003545   0.97515264    29.856208    57035.598   0.62837948    31.408062 
19660000    1.0048025    1.0298273    29.855318    57041.176   0.62831804    31.494341 
19662000    1.0011121    1.0510297    29.861462    57050.652   0.62821368    31.534506 
19664000    1.0100924   0.99245416    29.857575    57053.411    0.6281833    31.437455 
19666000     1.005447    1.0146202    29.852147    57053.155   0.62818611    31.467306 
19668000   0.99981708     0.984016    29.857537     57048.48   0.62823759    31.423849 
19670000    1.0009441   0.96314374    29.851588     57032.54   0.62841318    31.384248 
19672000     1.003013     1.050039      29.8491    57033.416   0.62840353    31.520063 
19674000    1.0006336   0.98701973    29.851962    57023.437    0.6285135    31.422365 
19676000    1.0016236    1.0342172     29.84935    57003.937    0.6287285    31.494284 
19678000    1.0039009    1.0128729    29.854483    57007.776   0.62868616    31.465577 
19680000    1.0017945    1.0196925    29.849135    57002.511   0.62874423    31.470927 
19682000   0.99817358    1.0419106    29.845633    57007.532   0.62868886    31.502909 
19684000   0.99821849    1.0095363    29.842485    57001.103   0.62875976    31.448084 
19686000   0.99516145    1.0468528    29.843056    56999.687   0.62877538    31.507963 
19688000   0.99686063    0.9811048    29.835487    56994.465   0.62883299    31.395687 
19690000   0.99564273   0.95421307     29.83672    56973.695   0.62906224    31.353602 
19692000   0.99814529    0.9731776    29.839203    56960.663   0.62920616    31.385878 
19694000   0.99812526    1.0153884    29.837302    56951.499    0.6293074    31.450803 
19696000   0.99137258   0.96906676    29.834052    56938.116   0.62945532    31.373584 
19698000   0.99670993    1.0515299    29.839547     56945.31    0.6293758    31.510297 
19700000   0.99790472   0.92446214    29.840594    56929.869    0.6295465    31.309051 
19702000    0.9949457   0.99268906    29.836982     56933.66   0.62950459    31.413919 
19704000   0.99073373    1.0080819     29.83515    56924.633   0.62960441    31.436285 
19706000   0.99364219   0.98753525    29.834335    56912.731   0.62973608    31.402509 
19708000    1.0002795   0.96263668    29.837247    56920.056   0.62965504    31.366079 
19710000   0.99715841    1.0520972    29.836097    56918.421   0.62967312    31.506959 
19712000    1.0014633    1.0142749    29.838439    56922.851   0.62962412    31.449361 
19714000   0.99589862    1.0167695    29.838889    56930.121   0.62954372    31.453979 
19716000   0.99634545    1.0746398    29.830735    56931.327   0.62953038    31.537785 
19718000   0.99072712   0.97713074    29.829372    56921.691   0.62963696    31.381267 
19720000   0.99223668    1.0751076    29.839549    56918.647   0.62967062    31.546962 
19722000   0.99261983   0.97841218    29.838042    56912.855   0.62973471    31.391732 
19724000   0.99833771    0.9834453     29.84015    56911.085   0.62975429    31.401784 
19726000   0.99627425    1.0186356        29.84    56923.734   0.62961435    31.457872 
19728000   0.99564827    1.0092021    29.832185    56939.561   0.62943935     31.43552 
19730000   0.99098253    1.0879234    29.838203    56940.189    0.6294324    31.566623 
19732000    1.0006491    1.0587243     29.84039    56944.236   0.62938767     31.52254 
19734000   0.99927129   0.98267488    29.844407    56951.193   0.62931079    31.405917 
19736000    1.0027374   0.98211133    29.856175    56965.069    0.6291575     31.41717 
19738000    1.0001251    1.0069846    29.849265     56971.02   0.62909178    31.449961 
19740000    1.0020004   0.99063731    29.846846    56973.864   0.62906037    31.421635 
19742000    1.0017385    1.0097181    29.856389    56971.244    0.6290893    31.461436 
19744000    1.0040287   0.93937532     29.85434    56974.758    0.6290505    31.347663 
19746000      1.00365   0.98058023    29.855085    56979.874   0.62899402    31.414051 
19748000    1.0063571    1.0261196    29.847787    56977.461   0.62902066    31.479084 
19750000   0.99907076   0.99468771    29.845694    56985.155   0.62893573    31.427235 
19752000    1.0052976    1.0663346     29.84206    56985.097   0.62893637    31.537517 
19754000    0.9947472   0.99624541    29.839778    56982.329   0.62896692    31.423717 
19756000    1.0018193   0.99190291    29.850532    56978.975   0.62900394    31.427475 
19758000    1.0052359    1.0262045     29.85144    56977.469   0.62902056    31.482873 
19760000    1.0040653    1.0067498    29.855749    56984.521   0.62894273    31.456451 
19762000    1.0010434    1.0189689    29.847994    56991.153   0.62886953    31.468312 
19764000    1.0037731    1.0225585    29.846013    56990.581   0.62887585    31.472023 
19766000    1.0016161   0.91653605    29.847946    56996.613    0.6288093     31.30552 
19768000   0.99433739   0.99783469    29.842729    56986.609   0.62891968    31.429315 
19770000   0.99956562     1.000357     29.84412    56989.198   0.62889111    31.434788 
19772000   0.99426333    1.0038358    29.841148    56987.561   0.62890917    31.437302 
19774000    0.9917031   0.93712318    29.837849    56994.981    0.6288273     31.32812 
19776000   0.99566905   0.99093461    29.835545    56982.487   0.62896518    31.411045 
19778000   0.99733412    1.0820177    29.837872    56961.059   0.62920178     31.55754 
19780000   0.99622438    1.0162019    29.828856    56947.964   0.62934647     31.44355 
19782000   0.99550612   0.97024097    29.840345     56942.36    0.6294084    31.381858 
19784000   0.98922884   0.95168535    29.830089    56927.647   0.62957108     31.34173 
19786000   0.98918677    1.0101869    29.832155    56921.979   0.62963376    31.436559 
19788000    1.0004132    1.0029595    29.837051    56922.245   0.62963083    31.429984 
19790000   0.99221301   0.98632009    29.831661    56926.361    0.6295853     31.39828 
19792000   0.99375193   0.96005281    29.837635    56930.291   0.62954184    31.362637 
19794000   0.99522864    1.0335731    29.842579    56924.846   0.62960205    31.484208 
19796000   0.99583746    1.0137452    29.837608    56929.465   0.62955097    31.447875 
19798000    1.0049247   0.97924092    29.852877    56941.005   0.62942339    31.408651 
19800000    1.0026088   0.99859914    29.852291    56956.818   0.62924863    31.439262 
19802000   0.99658734      1.05664    29.848227     56964.54   0.62916334    31.527664 
19804000   0.99597024   0.97636365    29.849854    56968.356   0.62912119    31.401802 
19806000   0.99848355    1.0685644    29.845681    56970.014   0.62910289    31.544233 
19808000   0.99743506   0.97026985     29.84585    56968.434   0.62912033    31.388115 
19810000   0.99881769   0.98563752    29.853534    56981.064   0.62898088    31.420573 
19812000   0.99676148   0.97016694    29.843832    56976.742    0.6290286    31.386158 
19814000    1.0013419    1.0271433    29.841686    56984.595   0.62894191    31.474815 
19816000    1.0037737   0.99135298      29.8543    56988.794   0.62889556     31.43064 
19818000   0.99901536   0.95430286    29.841651    56987.365   0.62891134     31.35904 
19820000   0.99597177    1.0366656    29.842796    56977.885   0.62901598    31.490871 
19822000    0.9939295    1.0073368    29.844857    56976.467   0.62903163    31.446266 
19824000    1.0050126   0.97341929    29.847375    56979.933   0.62899337    31.394957 
19826000   0.99903797   0.96377303    29.843277    56980.764    0.6289842    31.375546 
19828000   0.99064212    1.0200578    29.837324    56967.762   0.62912775    31.458708 
19830000   0.99853408    1.0067888    29.839503     56957.93   0.62923635     31.43952 
19832000   0.99224572    1.0168611    29.834585    56963.659   0.62917307    31.450772 
19834000    0.9961086    1.0383085     29.83404    56967.299   0.62913287     31.48442 
19836000   0.99944169    1.0106809    29.840834    56958.567   0.62922931    31.447055 
19838000    1.0025713   0.94076509    29.848023    56970.808   0.62909411    31.343451 
19840000   0.99913993   0.96122003    29.848912    56977.927   0.62901551    31.377046 
19842000   0.99891798    1.0399527    29.852826    56973.512   0.62906426       31.506 
19844000    1.0020876    1.0589488    29.850568    56977.172   0.62902385    31.534047 
19846000    1.0020143   0.99618018    29.851614    56976.373   0.62903267    31.435284 
19848000    1.0025398   0.98152069     29.84633    56983.026   0.62895922    31.406878 
19850000   0.99901279    1.0310274    29.850087    56985.973    0.6289267    31.489431 
19852000    1.0016385    1.0259513    29.851334    56987.279   0.62891229    31.482644 
19854000   0.99789699   0.95352054    29.841757    56984.335   0.62894478    31.357821 
19856000   0.99761798    1.0489836    29.839196      56976.6   0.62903016    31.506816 
19858000    1.0010626   0.93129685     29.84698    56961.971   0.62919171    31.327128 
19860000   0.99559663    1.0131763    29.849085    56956.334   0.62925399    31.459208 
19862000   0.99567276   0.91614762    29.842916    56951.156   0.62931119     31.29871 
19864000   0.99832928    1.0146549    29.843096    56955.382    0.6292645    31.455542 
19866000     1.001398   0.97640094     29.84178    56957.929   0.62923637    31.393504 
19868000    1.0003469    1.0160547    29.849362    56964.279   0.62916622    31.464284 
19870000   0.99916535   0.97898954    29.841517    56965.577   0.62915188    31.397564 
19872000   0.99891384    1.0273373    29.847313    56967.927   0.62912593    31.480273 
19874000    1.0053001   0.97875122    29.845288     56963.13   0.62917891    31.400889 
19876000    1.0013772   0.96576937    29.842991    56968.316   0.62912163    31.378099 
19878000    1.0008512   0.99170109    29.841949    56973.756   0.62906156    31.418426 
19880000   0.99763921   0.99900386    29.850799    56982.692   0.62896291    31.439134 
19882000    1.0014012    0.9750409    29.849838    56975.564    0.6290416     31.39988 
19884000   0.99908511    1.0557562    29.849653    56988.172   0.62890243    31.528381 
19886000   0.99760806   0.90560678    29.848618    56999.239   0.62878033    31.288877 
19888000   0.99613018   0.96719272    29.847065    57001.661   0.62875361    31.385335 
19890000   0.99916251    1.0459474    29.845351    56989.158   0.62889155    31.508511 
19892000   0.99518329    0.9668679    29.844185     56992.65   0.62885302    31.381695 
19894000   0.99838795    1.0049086    29.841852    56993.107   0.62884798    31.439867 
19896000    0.9984517    1.0204473    29.842997    57000.932   0.62876164    31.465945 
19898000   0.99891637   0.97889067    29.841259    57001.157   0.62875916     31.39812 
19900000    1.0014809   0.94948946    29.844781    57010.392   0.62865732    31.355126 
19902000    1.0005891    1.0207187     29.84305    57017.506   0.62857888    31.466902 
19904000   0.99902245   0.98590107    29.843691    57015.898   0.62859661    31.412107 
19906000    1.0006052    1.0758369    29.848987    57006.702   0.62869801    31.560201 
19908000    1.0039487    1.0417409    29.850528    57014.987   0.62860665     31.50775 
19910000    1.0025652    1.0196972    29.847126    57020.302   0.62854806    31.469432 
19912000   0.99909111    1.0215365    29.848704    57019.625   0.62855552    31.473917 
19914000    1.0060728   0.98964926    29.849644    57020.728   0.62854336    31.424156 
19916000   0.99948356    1.0072141    29.847832    57022.849   0.62851998    31.450349 
19918000    1.0035101    1.0090799    29.852765    57012.949   0.62862912    31.457972 
19920000    1.0051391   0.97328284    29.849275    57023.584   0.62851188    31.397827 
19922000    1.0019605   0.99264887    29.847549    57012.907   0.62862959    31.426617 
19924000   0.99731083    1.0172804    29.841793    57009.881   0.62866295    31.459958 
19926000   0.99878799    0.9253595    29.847989    57003.856    0.6287294    31.319782 
19928000   0.99857413     1.069589     29.83775    56990.697   0.62887457    31.538549 
19930000    1.0007315    1.0192286    29.843308    56997.158   0.62880328     31.46421 
19932000   0.99591248    0.9645802    29.841672    56991.385   0.62886697     31.37551 
19934000   0.99475907   0.99116612    29.836681     56988.91   0.62889429    31.412727 
19936000   0.99973674    1.0491644    29.838937    56979.378    0.6289995    31.506926 
19938000   0.99923542   0.95307653    29.843247    56975.626   0.62904092    31.358373 
19940000    1.0029666    1.0045651    29.845456    56975.623   0.62904095    31.442434 
19942000    1.0016946    0.9213947    29.844669    56965.094   0.62915721     31.30916 
19944000    0.9995509   0.98303681    29.845553    56966.926   0.62913698    31.408069 
19946000   0.99717529    1.0199586    29.848887    56970.119   0.62910172    31.470181 
19948000   0.99908777    1.0317411    29.846081    56978.066   0.62901398    31.486333 
19950000   0.99917303    1.0412992    29.843558    56978.181   0.62901271    31.499009 
19952000    1.0023239   0.97100912    29.850668    56985.174   0.62893552    31.394561 
19954000     1.003128    1.0366625     29.84636    56992.423   0.62885552    31.494851 
19956000    1.0013558   0.99868746    29.841276    56986.199   0.62892421    31.429206 
19958000     1.002887    1.0415001    29.841645    56980.734   0.62898453    31.497489 
19960000    1.0015319   0.97397545    29.854543    56986.317   0.62892291    31.403183 
19962000   0.99959824    1.0083361    29.848413    56986.369   0.62892233    31.451689 
19964000    1.0003619   0.97277052    29.850964     56977.87   0.62901614     31.39746 
19966000   0.99788958    1.0254332    29.844309    56977.605   0.62901906    31.474519 
19968000    1.0010822    0.9881984    29.844678    56987.902   0.62890542    31.415977 
19970000    1.0027062   0.97078597    29.850794    56993.503    0.6288436    31.394558 
19972000    1.0030313    1.0259932    29.847883    56998.298    0.6287907    31.479576 
19974000    1.0024732   0.95123831    29.847739    57002.794   0.62874111    31.360665 
19976000   0.99798023   0.95515528    29.847421    56996.142   0.62881449    31.366399 
19978000    1.0027934     1.006922    29.845373    56997.749   0.62879676     31.44672 
19980000   0.99940541   0.98587236    29.839038    57004.952    0.6287173    31.407108 
19982000   0.99357422   0.94607544    29.844619    56999.481   0.62877766    31.349245 
19984000   0.99920384   0.95958641    29.837393    56995.524   0.62882131    31.363401 
19986000   0.99538173    1.0063729    29.838568     56995.63   0.62882014    31.438983 
19988000   0.99443243   0.96014842    29.838351    56988.373   0.62890022    31.365061 
19990000   0.99678341    1.0241154    29.839346    56988.455   0.62889931    31.467771 
19992000   0.99687744    1.0229511    29.837337    56988.479   0.62889905    31.463912 
19994000   0.99895306   0.97075279    29.841394    56994.223   0.62883566    31.385125 
19996000   0.99629964   0.94389851    29.843865    56988.371   0.62890023    31.344737 
19998000   0.99657807   0.96913492    29.844577    56985.669   0.62893005    31.385504 
20000000   0.99891881    0.9716936    29.839125    56976.264   0.62903388    31.383865 
Loop time of 26624.3 on 32 procs for 14000000 steps with 35840 atoms

Performance: 227161.044 tau/day, 525.836 timesteps/s
99.9% CPU use with 32 MPI tasks x 1 OpenMP threads

MPI task timing breakdown:
Section |  min time  |  avg time  |  max time  |%varavg| %total
---------------------------------------------------------------
Pair    | 941.41     | 2548.5     | 6086.8     |2745.3 |  9.57
Bond    | 476.35     | 759.11     | 1410.3     | 915.6 |  2.85
Neigh   | 3127.1     | 3138.5     | 3146.7     |   9.7 | 11.79
Comm    | 3999       | 8018.7     | 10573      |1800.4 | 30.12
Output  | 8.8542     | 8.8803     | 8.9791     |   0.7 |  0.03
Modify  | 11036      | 11948      | 13543      | 550.0 | 44.88
Other   |            | 202.7      |            |       |  0.76

Nlocal:        1120.00 ave        1573 max         982 min
Histogram: 16 7 1 1 2 1 2 0 1 1
Nghost:        2722.72 ave        3093 max        2498 min
Histogram: 4 7 5 2 4 3 2 2 1 2
Neighs:        10928.5 ave       41296 max        3509 min
Histogram: 19 5 0 1 2 1 1 1 1 1

Total # of neighbors = 349712
Ave neighs/atom = 9.7575893
Ave special neighs/atom = 2.3459821
Neighbor list builds = 978333
Dangerous builds = 0


# ----------------- Run Section -----------------

# The lines above define the system you want to simulate.
# What you do next is up to you.
# Typically a user would minimize and equilibrate
# the system using commands similar to the following:
#  ----   examples   ----
#
#  -- minimize --
# minimize 1.0e-5 1.0e-7 1000 10000
# (Note: Some fixes, for example "shake", interfere with the minimize command,
#        You can use the "unfix" command to disable them before minimization.)
#  -- declare time step for normal MD --
# timestep 1.0
#  -- run at constant pressure (Nose-Hoover)--
# fix   fxnpt all npt temp 300.0 300.0 100.0 iso 1.0 1.0 1000.0 drag 1.0
#  -- ALTERNATELY, run at constant volume (Nose-Hoover) --
# fix   fxnvt all nvt temp 300.0 300.0 500.0 tchain 1
#  -- ALTERNATELY, run at constant volume using Langevin dynamics. --
#  -- (This is good for sparse CG polymers in implicit solvent.)   --
# fix fxLAN all langevin 300.0 300.0 5000 48279
# fix fxNVE all nve  #(<--needed by fix langevin)
#  -- Now, finally run the simulation --
# run   50000
#  ---- (end of examples) ----

Total wall time: 10:25:46
